<UPF version="2.0.1">
  <PP_INFO>

 ELECTRON PSEUDOPOTENTIAL — derived from anti-proton-ONCV-1.2.upf
 Modification 2026-05-07: this is an "electron" pseudopotential —
 same -1 Coulomb tail as anti-proton-ONCV-1.2.upf (both are bare point
 charges of charge -1), but the projectile mass is set to the electron
 mass (5.4857991e-4 amu => 1.0000 atomic units = m_e) at runtime in
 the calling C++ code via inq::ionic::species(sym).mass(amu). The UPF
 format carries no mass attribute, so this rename + comment is for
 human verification only; the actual physics change is host-side.

 Below is the original antiproton header preserved verbatim:
=================================================================
 ANTIPROTON PSEUDOPOTENTIAL — derived from H_ONCV_PBE-1.2.upf
 Modifications applied 2026-05-07:

   1. Changed the PP_HEADER edits:
        z_valence       1.00 -> 0.00
                        (no electrons contributed to KS system)
        number_of_proj  2 -> 0
        is_coulomb      F -> T
                        (declares this as a bare local Coulomb PP)

   2. PP_NONLOCAL block PRESENT BUT EMPTY (with empty PP_DIJ child)
        (no bound electrons to scatter, no KB projectors needed)
        UPDATE 2026-05-08: pseudopod's UPF2 parser
        (inq/external_libs/pseudopod/formats/upf2.hpp:159) null-derefs
        if PP_NONLOCAL is missing, even when number_of_proj=0. So the
        block exists but is empty. The DIJ stub has size=0; the parser
        loop iterates zero times because nprojectors()==0.

   3. This is the main change. PP_LOCAL extended from r = 6.01 -> 50.00 Bohr
        Extension uses the bare -2/r form (Rydberg, e^2 = 2, conversion from Bohr)
        Necessary because the unscreened Coulomb tail is
        long-ranged: at r = 6 Bohr, V = -0.33 Ry, not zero. 
        Essentially, even though the original PP_LOCAL provided unscreened potential, 
        we are changing this because, there is no electron in the system, with this
        ion to screen the charge. Hence, we've extended the range of the grid it is 
        simulated in. This way, we are truly representing the 1/r decay of the coulombic potential

   4. PP_LOCAL sign FLIPPED: V_loc -> -V_loc
        Proton (-1/r, attractive) -> Antiproton (+1/r, repulsive)
        Verified: V_loc * r -> +2.000 Ry at large r

   5. PP_RHOATOM extended with zeros beyond original mesh
        (no valence charge to initialise SCF density with)

   6. PP_R, PP_RAB, mesh_size, rho_cutoff updated for new mesh
        New mesh: 5001 uniform points, dr = 0.01, r_max = 50.0

 Use case: bare antiproton projectile in INQ rt-TDDFT simulations.
 The projectile mass should be set in the INQ input file; this
 UPF carries no mass attribute (mass is host-code-side).
=================================================================

 H_ONCV_PBE-1.2.upf

 This pseudopotential file has been produced using the code
 ONCVPSP  (Optimized Norm-Conservinng Vanderbilt PSeudopotential)
 scalar-relativistic version 2.1.1, 03/26/2014 by D. R. Hamann
 The code is available through a link at URL www.mat-simresearch.com.
 Documentation with the package provides a full discription of the
 input data below.


 While it is not required under the terms of the GNU GPL, it is
 suggested that you cite D. R. Hamann, Phys. Rev. B 88, 085117 (2013)
 in any publication using these pseudopotentials.


 Copyright 2015 The Regents of the University of California
 
 This work is licensed under the Creative Commons Attribution-ShareAlike 
 4.0 International License. To view a copy of this license, visit 
 http://creativecommons.org/licenses/by-sa/4.0/ or send a letter to 
 Creative Commons, PO Box 1866, Mountain View, CA 94042, USA.
 
 This pseudopotential is part of the Schlipf-Gygi norm-conserving 
 pseudopotential library. Its construction parameters were tuned to 
 reproduce materials of a training set with very high accuracy and 
 should be suitable as a general purpose pseudopotential to treat a 
 variety of different compounds. For details of the construction and 
 testing of the pseudopotential please refer to:
 
   M. Schlipf and F. Gygi, Computer Physics Communications (2015)
   DOI: 10.1016/j.cpc.2015.05.011
   http://dx.doi.org/10.1016/j.cpc.2015.05.011
   http://www.quantum-simulation.org
 
 We kindly ask that you include this reference in all publications 
 associated to this pseudopotential.


    <PP_INPUTFILE>
# ATOM AND REFERENCE CONFIGURATION
# atsym  z    nc    nv    iexc   psfile
  H  1.00     0     1     4      upf
#
#   n    l    f        energy (Ha)
    1    0    1.00
#
# PSEUDOPOTENTIAL AND OPTIMIZATION
# lmax
    0
#
#   l,   rc,     ep,   ncon, nbas, qcut
    0   1.13748  -0.23860    5    8   9.72141
#
# LOCAL POTENTIAL
# lloc, lpopt,  rc(5),   dvloc0
    4    5   0.49352      0.00000
#
# VANDERBILT-KLEINMAN-BYLANDER PROJECTORs
# l, nproj, debl
    0    2   1.27464
#
# MODEL CORE CHARGE
# icmod, fcfact
    0   0.00000
#
# LOG DERIVATIVE ANALYSIS
# epsh1, epsh2, depsh
   -5.00    3.00    0.02
#
# OUTPUT GRID
# rlmax, drl
    6.00    0.01
#
# TEST CONFIGURATIONS
# ncnf
    0
# nvcnf
#   n    l    f
    </PP_INPUTFILE>
  </PP_INFO>
  <!--                               -->
  <!-- END OF HUMAN READABLE SECTION -->
  <!--                               -->
    <PP_HEADER
       generated="Generated using ONCVPSP code by D. R. Hamann"
       author="Martin Schlipf and Francois Gygi"
       date="150105"
       comment=""
       element="H "
       pseudo_type="NC"
       relativistic="scalar"
       is_ultrasoft="F"
       is_paw="F"
       is_coulomb="T"
       has_so="F"
       has_wfc="F"
       has_gipaw="F"
       core_correction="F"
       functional="PBE"
       z_valence="    0.00"
       total_psenergy="  -4.58772875004E-01"
       rho_cutoff="   5.0000000000E+01"
       l_max="0"
       l_local="-1"
       mesh_size="12001"
       number_of_wfc="0"
       number_of_proj="0"/>
 <PP_MESH>
   <PP_R type="real"  size="12001" columns="8">
    0.0000    0.0100    0.0200    0.0300    0.0400    0.0500    0.0600    0.0700
    0.0800    0.0900    0.1000    0.1100    0.1200    0.1300    0.1400    0.1500
    0.1600    0.1700    0.1800    0.1900    0.2000    0.2100    0.2200    0.2300
    0.2400    0.2500    0.2600    0.2700    0.2800    0.2900    0.3000    0.3100
    0.3200    0.3300    0.3400    0.3500    0.3600    0.3700    0.3800    0.3900
    0.4000    0.4100    0.4200    0.4300    0.4400    0.4500    0.4600    0.4700
    0.4800    0.4900    0.5000    0.5100    0.5200    0.5300    0.5400    0.5500
    0.5600    0.5700    0.5800    0.5900    0.6000    0.6100    0.6200    0.6300
    0.6400    0.6500    0.6600    0.6700    0.6800    0.6900    0.7000    0.7100
    0.7200    0.7300    0.7400    0.7500    0.7600    0.7700    0.7800    0.7900
    0.8000    0.8100    0.8200    0.8300    0.8400    0.8500    0.8600    0.8700
    0.8800    0.8900    0.9000    0.9100    0.9200    0.9300    0.9400    0.9500
    0.9600    0.9700    0.9800    0.9900    1.0000    1.0100    1.0200    1.0300
    1.0400    1.0500    1.0600    1.0700    1.0800    1.0900    1.1000    1.1100
    1.1200    1.1300    1.1400    1.1500    1.1600    1.1700    1.1800    1.1900
    1.2000    1.2100    1.2200    1.2300    1.2400    1.2500    1.2600    1.2700
    1.2800    1.2900    1.3000    1.3100    1.3200    1.3300    1.3400    1.3500
    1.3600    1.3700    1.3800    1.3900    1.4000    1.4100    1.4200    1.4300
    1.4400    1.4500    1.4600    1.4700    1.4800    1.4900    1.5000    1.5100
    1.5200    1.5300    1.5400    1.5500    1.5600    1.5700    1.5800    1.5900
    1.6000    1.6100    1.6200    1.6300    1.6400    1.6500    1.6600    1.6700
    1.6800    1.6900    1.7000    1.7100    1.7200    1.7300    1.7400    1.7500
    1.7600    1.7700    1.7800    1.7900    1.8000    1.8100    1.8200    1.8300
    1.8400    1.8500    1.8600    1.8700    1.8800    1.8900    1.9000    1.9100
    1.9200    1.9300    1.9400    1.9500    1.9600    1.9700    1.9800    1.9900
    2.0000    2.0100    2.0200    2.0300    2.0400    2.0500    2.0600    2.0700
    2.0800    2.0900    2.1000    2.1100    2.1200    2.1300    2.1400    2.1500
    2.1600    2.1700    2.1800    2.1900    2.2000    2.2100    2.2200    2.2300
    2.2400    2.2500    2.2600    2.2700    2.2800    2.2900    2.3000    2.3100
    2.3200    2.3300    2.3400    2.3500    2.3600    2.3700    2.3800    2.3900
    2.4000    2.4100    2.4200    2.4300    2.4400    2.4500    2.4600    2.4700
    2.4800    2.4900    2.5000    2.5100    2.5200    2.5300    2.5400    2.5500
    2.5600    2.5700    2.5800    2.5900    2.6000    2.6100    2.6200    2.6300
    2.6400    2.6500    2.6600    2.6700    2.6800    2.6900    2.7000    2.7100
    2.7200    2.7300    2.7400    2.7500    2.7600    2.7700    2.7800    2.7900
    2.8000    2.8100    2.8200    2.8300    2.8400    2.8500    2.8600    2.8700
    2.8800    2.8900    2.9000    2.9100    2.9200    2.9300    2.9400    2.9500
    2.9600    2.9700    2.9800    2.9900    3.0000    3.0100    3.0200    3.0300
    3.0400    3.0500    3.0600    3.0700    3.0800    3.0900    3.1000    3.1100
    3.1200    3.1300    3.1400    3.1500    3.1600    3.1700    3.1800    3.1900
    3.2000    3.2100    3.2200    3.2300    3.2400    3.2500    3.2600    3.2700
    3.2800    3.2900    3.3000    3.3100    3.3200    3.3300    3.3400    3.3500
    3.3600    3.3700    3.3800    3.3900    3.4000    3.4100    3.4200    3.4300
    3.4400    3.4500    3.4600    3.4700    3.4800    3.4900    3.5000    3.5100
    3.5200    3.5300    3.5400    3.5500    3.5600    3.5700    3.5800    3.5900
    3.6000    3.6100    3.6200    3.6300    3.6400    3.6500    3.6600    3.6700
    3.6800    3.6900    3.7000    3.7100    3.7200    3.7300    3.7400    3.7500
    3.7600    3.7700    3.7800    3.7900    3.8000    3.8100    3.8200    3.8300
    3.8400    3.8500    3.8600    3.8700    3.8800    3.8900    3.9000    3.9100
    3.9200    3.9300    3.9400    3.9500    3.9600    3.9700    3.9800    3.9900
    4.0000    4.0100    4.0200    4.0300    4.0400    4.0500    4.0600    4.0700
    4.0800    4.0900    4.1000    4.1100    4.1200    4.1300    4.1400    4.1500
    4.1600    4.1700    4.1800    4.1900    4.2000    4.2100    4.2200    4.2300
    4.2400    4.2500    4.2600    4.2700    4.2800    4.2900    4.3000    4.3100
    4.3200    4.3300    4.3400    4.3500    4.3600    4.3700    4.3800    4.3900
    4.4000    4.4100    4.4200    4.4300    4.4400    4.4500    4.4600    4.4700
    4.4800    4.4900    4.5000    4.5100    4.5200    4.5300    4.5400    4.5500
    4.5600    4.5700    4.5800    4.5900    4.6000    4.6100    4.6200    4.6300
    4.6400    4.6500    4.6600    4.6700    4.6800    4.6900    4.7000    4.7100
    4.7200    4.7300    4.7400    4.7500    4.7600    4.7700    4.7800    4.7900
    4.8000    4.8100    4.8200    4.8300    4.8400    4.8500    4.8600    4.8700
    4.8800    4.8900    4.9000    4.9100    4.9200    4.9300    4.9400    4.9500
    4.9600    4.9700    4.9800    4.9900    5.0000    5.0100    5.0200    5.0300
    5.0400    5.0500    5.0600    5.0700    5.0800    5.0900    5.1000    5.1100
    5.1200    5.1300    5.1400    5.1500    5.1600    5.1700    5.1800    5.1900
    5.2000    5.2100    5.2200    5.2300    5.2400    5.2500    5.2600    5.2700
    5.2800    5.2900    5.3000    5.3100    5.3200    5.3300    5.3400    5.3500
    5.3600    5.3700    5.3800    5.3900    5.4000    5.4100    5.4200    5.4300
    5.4400    5.4500    5.4600    5.4700    5.4800    5.4900    5.5000    5.5100
    5.5200    5.5300    5.5400    5.5500    5.5600    5.5700    5.5800    5.5900
    5.6000    5.6100    5.6200    5.6300    5.6400    5.6500    5.6600    5.6700
    5.6800    5.6900    5.7000    5.7100    5.7200    5.7300    5.7400    5.7500
    5.7600    5.7700    5.7800    5.7900    5.8000    5.8100    5.8200    5.8300
    5.8400    5.8500    5.8600    5.8700    5.8800    5.8900    5.9000    5.9100
    5.9200    5.9300    5.9400    5.9500    5.9600    5.9700    5.9800    5.9900
    6.0000    6.0100    6.0200    6.0300    6.0400    6.0500    6.0600    6.0700
    6.0800    6.0900    6.1000    6.1100    6.1200    6.1300    6.1400    6.1500
    6.1600    6.1700    6.1800    6.1900    6.2000    6.2100    6.2200    6.2300
    6.2400    6.2500    6.2600    6.2700    6.2800    6.2900    6.3000    6.3100
    6.3200    6.3300    6.3400    6.3500    6.3600    6.3700    6.3800    6.3900
    6.4000    6.4100    6.4200    6.4300    6.4400    6.4500    6.4600    6.4700
    6.4800    6.4900    6.5000    6.5100    6.5200    6.5300    6.5400    6.5500
    6.5600    6.5700    6.5800    6.5900    6.6000    6.6100    6.6200    6.6300
    6.6400    6.6500    6.6600    6.6700    6.6800    6.6900    6.7000    6.7100
    6.7200    6.7300    6.7400    6.7500    6.7600    6.7700    6.7800    6.7900
    6.8000    6.8100    6.8200    6.8300    6.8400    6.8500    6.8600    6.8700
    6.8800    6.8900    6.9000    6.9100    6.9200    6.9300    6.9400    6.9500
    6.9600    6.9700    6.9800    6.9900    7.0000    7.0100    7.0200    7.0300
    7.0400    7.0500    7.0600    7.0700    7.0800    7.0900    7.1000    7.1100
    7.1200    7.1300    7.1400    7.1500    7.1600    7.1700    7.1800    7.1900
    7.2000    7.2100    7.2200    7.2300    7.2400    7.2500    7.2600    7.2700
    7.2800    7.2900    7.3000    7.3100    7.3200    7.3300    7.3400    7.3500
    7.3600    7.3700    7.3800    7.3900    7.4000    7.4100    7.4200    7.4300
    7.4400    7.4500    7.4600    7.4700    7.4800    7.4900    7.5000    7.5100
    7.5200    7.5300    7.5400    7.5500    7.5600    7.5700    7.5800    7.5900
    7.6000    7.6100    7.6200    7.6300    7.6400    7.6500    7.6600    7.6700
    7.6800    7.6900    7.7000    7.7100    7.7200    7.7300    7.7400    7.7500
    7.7600    7.7700    7.7800    7.7900    7.8000    7.8100    7.8200    7.8300
    7.8400    7.8500    7.8600    7.8700    7.8800    7.8900    7.9000    7.9100
    7.9200    7.9300    7.9400    7.9500    7.9600    7.9700    7.9800    7.9900
    8.0000    8.0100    8.0200    8.0300    8.0400    8.0500    8.0600    8.0700
    8.0800    8.0900    8.1000    8.1100    8.1200    8.1300    8.1400    8.1500
    8.1600    8.1700    8.1800    8.1900    8.2000    8.2100    8.2200    8.2300
    8.2400    8.2500    8.2600    8.2700    8.2800    8.2900    8.3000    8.3100
    8.3200    8.3300    8.3400    8.3500    8.3600    8.3700    8.3800    8.3900
    8.4000    8.4100    8.4200    8.4300    8.4400    8.4500    8.4600    8.4700
    8.4800    8.4900    8.5000    8.5100    8.5200    8.5300    8.5400    8.5500
    8.5600    8.5700    8.5800    8.5900    8.6000    8.6100    8.6200    8.6300
    8.6400    8.6500    8.6600    8.6700    8.6800    8.6900    8.7000    8.7100
    8.7200    8.7300    8.7400    8.7500    8.7600    8.7700    8.7800    8.7900
    8.8000    8.8100    8.8200    8.8300    8.8400    8.8500    8.8600    8.8700
    8.8800    8.8900    8.9000    8.9100    8.9200    8.9300    8.9400    8.9500
    8.9600    8.9700    8.9800    8.9900    9.0000    9.0100    9.0200    9.0300
    9.0400    9.0500    9.0600    9.0700    9.0800    9.0900    9.1000    9.1100
    9.1200    9.1300    9.1400    9.1500    9.1600    9.1700    9.1800    9.1900
    9.2000    9.2100    9.2200    9.2300    9.2400    9.2500    9.2600    9.2700
    9.2800    9.2900    9.3000    9.3100    9.3200    9.3300    9.3400    9.3500
    9.3600    9.3700    9.3800    9.3900    9.4000    9.4100    9.4200    9.4300
    9.4400    9.4500    9.4600    9.4700    9.4800    9.4900    9.5000    9.5100
    9.5200    9.5300    9.5400    9.5500    9.5600    9.5700    9.5800    9.5900
    9.6000    9.6100    9.6200    9.6300    9.6400    9.6500    9.6600    9.6700
    9.6800    9.6900    9.7000    9.7100    9.7200    9.7300    9.7400    9.7500
    9.7600    9.7700    9.7800    9.7900    9.8000    9.8100    9.8200    9.8300
    9.8400    9.8500    9.8600    9.8700    9.8800    9.8900    9.9000    9.9100
    9.9200    9.9300    9.9400    9.9500    9.9600    9.9700    9.9800    9.9900
   10.0000   10.0100   10.0200   10.0300   10.0400   10.0500   10.0600   10.0700
   10.0800   10.0900   10.1000   10.1100   10.1200   10.1300   10.1400   10.1500
   10.1600   10.1700   10.1800   10.1900   10.2000   10.2100   10.2200   10.2300
   10.2400   10.2500   10.2600   10.2700   10.2800   10.2900   10.3000   10.3100
   10.3200   10.3300   10.3400   10.3500   10.3600   10.3700   10.3800   10.3900
   10.4000   10.4100   10.4200   10.4300   10.4400   10.4500   10.4600   10.4700
   10.4800   10.4900   10.5000   10.5100   10.5200   10.5300   10.5400   10.5500
   10.5600   10.5700   10.5800   10.5900   10.6000   10.6100   10.6200   10.6300
   10.6400   10.6500   10.6600   10.6700   10.6800   10.6900   10.7000   10.7100
   10.7200   10.7300   10.7400   10.7500   10.7600   10.7700   10.7800   10.7900
   10.8000   10.8100   10.8200   10.8300   10.8400   10.8500   10.8600   10.8700
   10.8800   10.8900   10.9000   10.9100   10.9200   10.9300   10.9400   10.9500
   10.9600   10.9700   10.9800   10.9900   11.0000   11.0100   11.0200   11.0300
   11.0400   11.0500   11.0600   11.0700   11.0800   11.0900   11.1000   11.1100
   11.1200   11.1300   11.1400   11.1500   11.1600   11.1700   11.1800   11.1900
   11.2000   11.2100   11.2200   11.2300   11.2400   11.2500   11.2600   11.2700
   11.2800   11.2900   11.3000   11.3100   11.3200   11.3300   11.3400   11.3500
   11.3600   11.3700   11.3800   11.3900   11.4000   11.4100   11.4200   11.4300
   11.4400   11.4500   11.4600   11.4700   11.4800   11.4900   11.5000   11.5100
   11.5200   11.5300   11.5400   11.5500   11.5600   11.5700   11.5800   11.5900
   11.6000   11.6100   11.6200   11.6300   11.6400   11.6500   11.6600   11.6700
   11.6800   11.6900   11.7000   11.7100   11.7200   11.7300   11.7400   11.7500
   11.7600   11.7700   11.7800   11.7900   11.8000   11.8100   11.8200   11.8300
   11.8400   11.8500   11.8600   11.8700   11.8800   11.8900   11.9000   11.9100
   11.9200   11.9300   11.9400   11.9500   11.9600   11.9700   11.9800   11.9900
   12.0000   12.0100   12.0200   12.0300   12.0400   12.0500   12.0600   12.0700
   12.0800   12.0900   12.1000   12.1100   12.1200   12.1300   12.1400   12.1500
   12.1600   12.1700   12.1800   12.1900   12.2000   12.2100   12.2200   12.2300
   12.2400   12.2500   12.2600   12.2700   12.2800   12.2900   12.3000   12.3100
   12.3200   12.3300   12.3400   12.3500   12.3600   12.3700   12.3800   12.3900
   12.4000   12.4100   12.4200   12.4300   12.4400   12.4500   12.4600   12.4700
   12.4800   12.4900   12.5000   12.5100   12.5200   12.5300   12.5400   12.5500
   12.5600   12.5700   12.5800   12.5900   12.6000   12.6100   12.6200   12.6300
   12.6400   12.6500   12.6600   12.6700   12.6800   12.6900   12.7000   12.7100
   12.7200   12.7300   12.7400   12.7500   12.7600   12.7700   12.7800   12.7900
   12.8000   12.8100   12.8200   12.8300   12.8400   12.8500   12.8600   12.8700
   12.8800   12.8900   12.9000   12.9100   12.9200   12.9300   12.9400   12.9500
   12.9600   12.9700   12.9800   12.9900   13.0000   13.0100   13.0200   13.0300
   13.0400   13.0500   13.0600   13.0700   13.0800   13.0900   13.1000   13.1100
   13.1200   13.1300   13.1400   13.1500   13.1600   13.1700   13.1800   13.1900
   13.2000   13.2100   13.2200   13.2300   13.2400   13.2500   13.2600   13.2700
   13.2800   13.2900   13.3000   13.3100   13.3200   13.3300   13.3400   13.3500
   13.3600   13.3700   13.3800   13.3900   13.4000   13.4100   13.4200   13.4300
   13.4400   13.4500   13.4600   13.4700   13.4800   13.4900   13.5000   13.5100
   13.5200   13.5300   13.5400   13.5500   13.5600   13.5700   13.5800   13.5900
   13.6000   13.6100   13.6200   13.6300   13.6400   13.6500   13.6600   13.6700
   13.6800   13.6900   13.7000   13.7100   13.7200   13.7300   13.7400   13.7500
   13.7600   13.7700   13.7800   13.7900   13.8000   13.8100   13.8200   13.8300
   13.8400   13.8500   13.8600   13.8700   13.8800   13.8900   13.9000   13.9100
   13.9200   13.9300   13.9400   13.9500   13.9600   13.9700   13.9800   13.9900
   14.0000   14.0100   14.0200   14.0300   14.0400   14.0500   14.0600   14.0700
   14.0800   14.0900   14.1000   14.1100   14.1200   14.1300   14.1400   14.1500
   14.1600   14.1700   14.1800   14.1900   14.2000   14.2100   14.2200   14.2300
   14.2400   14.2500   14.2600   14.2700   14.2800   14.2900   14.3000   14.3100
   14.3200   14.3300   14.3400   14.3500   14.3600   14.3700   14.3800   14.3900
   14.4000   14.4100   14.4200   14.4300   14.4400   14.4500   14.4600   14.4700
   14.4800   14.4900   14.5000   14.5100   14.5200   14.5300   14.5400   14.5500
   14.5600   14.5700   14.5800   14.5900   14.6000   14.6100   14.6200   14.6300
   14.6400   14.6500   14.6600   14.6700   14.6800   14.6900   14.7000   14.7100
   14.7200   14.7300   14.7400   14.7500   14.7600   14.7700   14.7800   14.7900
   14.8000   14.8100   14.8200   14.8300   14.8400   14.8500   14.8600   14.8700
   14.8800   14.8900   14.9000   14.9100   14.9200   14.9300   14.9400   14.9500
   14.9600   14.9700   14.9800   14.9900   15.0000   15.0100   15.0200   15.0300
   15.0400   15.0500   15.0600   15.0700   15.0800   15.0900   15.1000   15.1100
   15.1200   15.1300   15.1400   15.1500   15.1600   15.1700   15.1800   15.1900
   15.2000   15.2100   15.2200   15.2300   15.2400   15.2500   15.2600   15.2700
   15.2800   15.2900   15.3000   15.3100   15.3200   15.3300   15.3400   15.3500
   15.3600   15.3700   15.3800   15.3900   15.4000   15.4100   15.4200   15.4300
   15.4400   15.4500   15.4600   15.4700   15.4800   15.4900   15.5000   15.5100
   15.5200   15.5300   15.5400   15.5500   15.5600   15.5700   15.5800   15.5900
   15.6000   15.6100   15.6200   15.6300   15.6400   15.6500   15.6600   15.6700
   15.6800   15.6900   15.7000   15.7100   15.7200   15.7300   15.7400   15.7500
   15.7600   15.7700   15.7800   15.7900   15.8000   15.8100   15.8200   15.8300
   15.8400   15.8500   15.8600   15.8700   15.8800   15.8900   15.9000   15.9100
   15.9200   15.9300   15.9400   15.9500   15.9600   15.9700   15.9800   15.9900
   16.0000   16.0100   16.0200   16.0300   16.0400   16.0500   16.0600   16.0700
   16.0800   16.0900   16.1000   16.1100   16.1200   16.1300   16.1400   16.1500
   16.1600   16.1700   16.1800   16.1900   16.2000   16.2100   16.2200   16.2300
   16.2400   16.2500   16.2600   16.2700   16.2800   16.2900   16.3000   16.3100
   16.3200   16.3300   16.3400   16.3500   16.3600   16.3700   16.3800   16.3900
   16.4000   16.4100   16.4200   16.4300   16.4400   16.4500   16.4600   16.4700
   16.4800   16.4900   16.5000   16.5100   16.5200   16.5300   16.5400   16.5500
   16.5600   16.5700   16.5800   16.5900   16.6000   16.6100   16.6200   16.6300
   16.6400   16.6500   16.6600   16.6700   16.6800   16.6900   16.7000   16.7100
   16.7200   16.7300   16.7400   16.7500   16.7600   16.7700   16.7800   16.7900
   16.8000   16.8100   16.8200   16.8300   16.8400   16.8500   16.8600   16.8700
   16.8800   16.8900   16.9000   16.9100   16.9200   16.9300   16.9400   16.9500
   16.9600   16.9700   16.9800   16.9900   17.0000   17.0100   17.0200   17.0300
   17.0400   17.0500   17.0600   17.0700   17.0800   17.0900   17.1000   17.1100
   17.1200   17.1300   17.1400   17.1500   17.1600   17.1700   17.1800   17.1900
   17.2000   17.2100   17.2200   17.2300   17.2400   17.2500   17.2600   17.2700
   17.2800   17.2900   17.3000   17.3100   17.3200   17.3300   17.3400   17.3500
   17.3600   17.3700   17.3800   17.3900   17.4000   17.4100   17.4200   17.4300
   17.4400   17.4500   17.4600   17.4700   17.4800   17.4900   17.5000   17.5100
   17.5200   17.5300   17.5400   17.5500   17.5600   17.5700   17.5800   17.5900
   17.6000   17.6100   17.6200   17.6300   17.6400   17.6500   17.6600   17.6700
   17.6800   17.6900   17.7000   17.7100   17.7200   17.7300   17.7400   17.7500
   17.7600   17.7700   17.7800   17.7900   17.8000   17.8100   17.8200   17.8300
   17.8400   17.8500   17.8600   17.8700   17.8800   17.8900   17.9000   17.9100
   17.9200   17.9300   17.9400   17.9500   17.9600   17.9700   17.9800   17.9900
   18.0000   18.0100   18.0200   18.0300   18.0400   18.0500   18.0600   18.0700
   18.0800   18.0900   18.1000   18.1100   18.1200   18.1300   18.1400   18.1500
   18.1600   18.1700   18.1800   18.1900   18.2000   18.2100   18.2200   18.2300
   18.2400   18.2500   18.2600   18.2700   18.2800   18.2900   18.3000   18.3100
   18.3200   18.3300   18.3400   18.3500   18.3600   18.3700   18.3800   18.3900
   18.4000   18.4100   18.4200   18.4300   18.4400   18.4500   18.4600   18.4700
   18.4800   18.4900   18.5000   18.5100   18.5200   18.5300   18.5400   18.5500
   18.5600   18.5700   18.5800   18.5900   18.6000   18.6100   18.6200   18.6300
   18.6400   18.6500   18.6600   18.6700   18.6800   18.6900   18.7000   18.7100
   18.7200   18.7300   18.7400   18.7500   18.7600   18.7700   18.7800   18.7900
   18.8000   18.8100   18.8200   18.8300   18.8400   18.8500   18.8600   18.8700
   18.8800   18.8900   18.9000   18.9100   18.9200   18.9300   18.9400   18.9500
   18.9600   18.9700   18.9800   18.9900   19.0000   19.0100   19.0200   19.0300
   19.0400   19.0500   19.0600   19.0700   19.0800   19.0900   19.1000   19.1100
   19.1200   19.1300   19.1400   19.1500   19.1600   19.1700   19.1800   19.1900
   19.2000   19.2100   19.2200   19.2300   19.2400   19.2500   19.2600   19.2700
   19.2800   19.2900   19.3000   19.3100   19.3200   19.3300   19.3400   19.3500
   19.3600   19.3700   19.3800   19.3900   19.4000   19.4100   19.4200   19.4300
   19.4400   19.4500   19.4600   19.4700   19.4800   19.4900   19.5000   19.5100
   19.5200   19.5300   19.5400   19.5500   19.5600   19.5700   19.5800   19.5900
   19.6000   19.6100   19.6200   19.6300   19.6400   19.6500   19.6600   19.6700
   19.6800   19.6900   19.7000   19.7100   19.7200   19.7300   19.7400   19.7500
   19.7600   19.7700   19.7800   19.7900   19.8000   19.8100   19.8200   19.8300
   19.8400   19.8500   19.8600   19.8700   19.8800   19.8900   19.9000   19.9100
   19.9200   19.9300   19.9400   19.9500   19.9600   19.9700   19.9800   19.9900
   20.0000   20.0100   20.0200   20.0300   20.0400   20.0500   20.0600   20.0700
   20.0800   20.0900   20.1000   20.1100   20.1200   20.1300   20.1400   20.1500
   20.1600   20.1700   20.1800   20.1900   20.2000   20.2100   20.2200   20.2300
   20.2400   20.2500   20.2600   20.2700   20.2800   20.2900   20.3000   20.3100
   20.3200   20.3300   20.3400   20.3500   20.3600   20.3700   20.3800   20.3900
   20.4000   20.4100   20.4200   20.4300   20.4400   20.4500   20.4600   20.4700
   20.4800   20.4900   20.5000   20.5100   20.5200   20.5300   20.5400   20.5500
   20.5600   20.5700   20.5800   20.5900   20.6000   20.6100   20.6200   20.6300
   20.6400   20.6500   20.6600   20.6700   20.6800   20.6900   20.7000   20.7100
   20.7200   20.7300   20.7400   20.7500   20.7600   20.7700   20.7800   20.7900
   20.8000   20.8100   20.8200   20.8300   20.8400   20.8500   20.8600   20.8700
   20.8800   20.8900   20.9000   20.9100   20.9200   20.9300   20.9400   20.9500
   20.9600   20.9700   20.9800   20.9900   21.0000   21.0100   21.0200   21.0300
   21.0400   21.0500   21.0600   21.0700   21.0800   21.0900   21.1000   21.1100
   21.1200   21.1300   21.1400   21.1500   21.1600   21.1700   21.1800   21.1900
   21.2000   21.2100   21.2200   21.2300   21.2400   21.2500   21.2600   21.2700
   21.2800   21.2900   21.3000   21.3100   21.3200   21.3300   21.3400   21.3500
   21.3600   21.3700   21.3800   21.3900   21.4000   21.4100   21.4200   21.4300
   21.4400   21.4500   21.4600   21.4700   21.4800   21.4900   21.5000   21.5100
   21.5200   21.5300   21.5400   21.5500   21.5600   21.5700   21.5800   21.5900
   21.6000   21.6100   21.6200   21.6300   21.6400   21.6500   21.6600   21.6700
   21.6800   21.6900   21.7000   21.7100   21.7200   21.7300   21.7400   21.7500
   21.7600   21.7700   21.7800   21.7900   21.8000   21.8100   21.8200   21.8300
   21.8400   21.8500   21.8600   21.8700   21.8800   21.8900   21.9000   21.9100
   21.9200   21.9300   21.9400   21.9500   21.9600   21.9700   21.9800   21.9900
   22.0000   22.0100   22.0200   22.0300   22.0400   22.0500   22.0600   22.0700
   22.0800   22.0900   22.1000   22.1100   22.1200   22.1300   22.1400   22.1500
   22.1600   22.1700   22.1800   22.1900   22.2000   22.2100   22.2200   22.2300
   22.2400   22.2500   22.2600   22.2700   22.2800   22.2900   22.3000   22.3100
   22.3200   22.3300   22.3400   22.3500   22.3600   22.3700   22.3800   22.3900
   22.4000   22.4100   22.4200   22.4300   22.4400   22.4500   22.4600   22.4700
   22.4800   22.4900   22.5000   22.5100   22.5200   22.5300   22.5400   22.5500
   22.5600   22.5700   22.5800   22.5900   22.6000   22.6100   22.6200   22.6300
   22.6400   22.6500   22.6600   22.6700   22.6800   22.6900   22.7000   22.7100
   22.7200   22.7300   22.7400   22.7500   22.7600   22.7700   22.7800   22.7900
   22.8000   22.8100   22.8200   22.8300   22.8400   22.8500   22.8600   22.8700
   22.8800   22.8900   22.9000   22.9100   22.9200   22.9300   22.9400   22.9500
   22.9600   22.9700   22.9800   22.9900   23.0000   23.0100   23.0200   23.0300
   23.0400   23.0500   23.0600   23.0700   23.0800   23.0900   23.1000   23.1100
   23.1200   23.1300   23.1400   23.1500   23.1600   23.1700   23.1800   23.1900
   23.2000   23.2100   23.2200   23.2300   23.2400   23.2500   23.2600   23.2700
   23.2800   23.2900   23.3000   23.3100   23.3200   23.3300   23.3400   23.3500
   23.3600   23.3700   23.3800   23.3900   23.4000   23.4100   23.4200   23.4300
   23.4400   23.4500   23.4600   23.4700   23.4800   23.4900   23.5000   23.5100
   23.5200   23.5300   23.5400   23.5500   23.5600   23.5700   23.5800   23.5900
   23.6000   23.6100   23.6200   23.6300   23.6400   23.6500   23.6600   23.6700
   23.6800   23.6900   23.7000   23.7100   23.7200   23.7300   23.7400   23.7500
   23.7600   23.7700   23.7800   23.7900   23.8000   23.8100   23.8200   23.8300
   23.8400   23.8500   23.8600   23.8700   23.8800   23.8900   23.9000   23.9100
   23.9200   23.9300   23.9400   23.9500   23.9600   23.9700   23.9800   23.9900
   24.0000   24.0100   24.0200   24.0300   24.0400   24.0500   24.0600   24.0700
   24.0800   24.0900   24.1000   24.1100   24.1200   24.1300   24.1400   24.1500
   24.1600   24.1700   24.1800   24.1900   24.2000   24.2100   24.2200   24.2300
   24.2400   24.2500   24.2600   24.2700   24.2800   24.2900   24.3000   24.3100
   24.3200   24.3300   24.3400   24.3500   24.3600   24.3700   24.3800   24.3900
   24.4000   24.4100   24.4200   24.4300   24.4400   24.4500   24.4600   24.4700
   24.4800   24.4900   24.5000   24.5100   24.5200   24.5300   24.5400   24.5500
   24.5600   24.5700   24.5800   24.5900   24.6000   24.6100   24.6200   24.6300
   24.6400   24.6500   24.6600   24.6700   24.6800   24.6900   24.7000   24.7100
   24.7200   24.7300   24.7400   24.7500   24.7600   24.7700   24.7800   24.7900
   24.8000   24.8100   24.8200   24.8300   24.8400   24.8500   24.8600   24.8700
   24.8800   24.8900   24.9000   24.9100   24.9200   24.9300   24.9400   24.9500
   24.9600   24.9700   24.9800   24.9900   25.0000   25.0100   25.0200   25.0300
   25.0400   25.0500   25.0600   25.0700   25.0800   25.0900   25.1000   25.1100
   25.1200   25.1300   25.1400   25.1500   25.1600   25.1700   25.1800   25.1900
   25.2000   25.2100   25.2200   25.2300   25.2400   25.2500   25.2600   25.2700
   25.2800   25.2900   25.3000   25.3100   25.3200   25.3300   25.3400   25.3500
   25.3600   25.3700   25.3800   25.3900   25.4000   25.4100   25.4200   25.4300
   25.4400   25.4500   25.4600   25.4700   25.4800   25.4900   25.5000   25.5100
   25.5200   25.5300   25.5400   25.5500   25.5600   25.5700   25.5800   25.5900
   25.6000   25.6100   25.6200   25.6300   25.6400   25.6500   25.6600   25.6700
   25.6800   25.6900   25.7000   25.7100   25.7200   25.7300   25.7400   25.7500
   25.7600   25.7700   25.7800   25.7900   25.8000   25.8100   25.8200   25.8300
   25.8400   25.8500   25.8600   25.8700   25.8800   25.8900   25.9000   25.9100
   25.9200   25.9300   25.9400   25.9500   25.9600   25.9700   25.9800   25.9900
   26.0000   26.0100   26.0200   26.0300   26.0400   26.0500   26.0600   26.0700
   26.0800   26.0900   26.1000   26.1100   26.1200   26.1300   26.1400   26.1500
   26.1600   26.1700   26.1800   26.1900   26.2000   26.2100   26.2200   26.2300
   26.2400   26.2500   26.2600   26.2700   26.2800   26.2900   26.3000   26.3100
   26.3200   26.3300   26.3400   26.3500   26.3600   26.3700   26.3800   26.3900
   26.4000   26.4100   26.4200   26.4300   26.4400   26.4500   26.4600   26.4700
   26.4800   26.4900   26.5000   26.5100   26.5200   26.5300   26.5400   26.5500
   26.5600   26.5700   26.5800   26.5900   26.6000   26.6100   26.6200   26.6300
   26.6400   26.6500   26.6600   26.6700   26.6800   26.6900   26.7000   26.7100
   26.7200   26.7300   26.7400   26.7500   26.7600   26.7700   26.7800   26.7900
   26.8000   26.8100   26.8200   26.8300   26.8400   26.8500   26.8600   26.8700
   26.8800   26.8900   26.9000   26.9100   26.9200   26.9300   26.9400   26.9500
   26.9600   26.9700   26.9800   26.9900   27.0000   27.0100   27.0200   27.0300
   27.0400   27.0500   27.0600   27.0700   27.0800   27.0900   27.1000   27.1100
   27.1200   27.1300   27.1400   27.1500   27.1600   27.1700   27.1800   27.1900
   27.2000   27.2100   27.2200   27.2300   27.2400   27.2500   27.2600   27.2700
   27.2800   27.2900   27.3000   27.3100   27.3200   27.3300   27.3400   27.3500
   27.3600   27.3700   27.3800   27.3900   27.4000   27.4100   27.4200   27.4300
   27.4400   27.4500   27.4600   27.4700   27.4800   27.4900   27.5000   27.5100
   27.5200   27.5300   27.5400   27.5500   27.5600   27.5700   27.5800   27.5900
   27.6000   27.6100   27.6200   27.6300   27.6400   27.6500   27.6600   27.6700
   27.6800   27.6900   27.7000   27.7100   27.7200   27.7300   27.7400   27.7500
   27.7600   27.7700   27.7800   27.7900   27.8000   27.8100   27.8200   27.8300
   27.8400   27.8500   27.8600   27.8700   27.8800   27.8900   27.9000   27.9100
   27.9200   27.9300   27.9400   27.9500   27.9600   27.9700   27.9800   27.9900
   28.0000   28.0100   28.0200   28.0300   28.0400   28.0500   28.0600   28.0700
   28.0800   28.0900   28.1000   28.1100   28.1200   28.1300   28.1400   28.1500
   28.1600   28.1700   28.1800   28.1900   28.2000   28.2100   28.2200   28.2300
   28.2400   28.2500   28.2600   28.2700   28.2800   28.2900   28.3000   28.3100
   28.3200   28.3300   28.3400   28.3500   28.3600   28.3700   28.3800   28.3900
   28.4000   28.4100   28.4200   28.4300   28.4400   28.4500   28.4600   28.4700
   28.4800   28.4900   28.5000   28.5100   28.5200   28.5300   28.5400   28.5500
   28.5600   28.5700   28.5800   28.5900   28.6000   28.6100   28.6200   28.6300
   28.6400   28.6500   28.6600   28.6700   28.6800   28.6900   28.7000   28.7100
   28.7200   28.7300   28.7400   28.7500   28.7600   28.7700   28.7800   28.7900
   28.8000   28.8100   28.8200   28.8300   28.8400   28.8500   28.8600   28.8700
   28.8800   28.8900   28.9000   28.9100   28.9200   28.9300   28.9400   28.9500
   28.9600   28.9700   28.9800   28.9900   29.0000   29.0100   29.0200   29.0300
   29.0400   29.0500   29.0600   29.0700   29.0800   29.0900   29.1000   29.1100
   29.1200   29.1300   29.1400   29.1500   29.1600   29.1700   29.1800   29.1900
   29.2000   29.2100   29.2200   29.2300   29.2400   29.2500   29.2600   29.2700
   29.2800   29.2900   29.3000   29.3100   29.3200   29.3300   29.3400   29.3500
   29.3600   29.3700   29.3800   29.3900   29.4000   29.4100   29.4200   29.4300
   29.4400   29.4500   29.4600   29.4700   29.4800   29.4900   29.5000   29.5100
   29.5200   29.5300   29.5400   29.5500   29.5600   29.5700   29.5800   29.5900
   29.6000   29.6100   29.6200   29.6300   29.6400   29.6500   29.6600   29.6700
   29.6800   29.6900   29.7000   29.7100   29.7200   29.7300   29.7400   29.7500
   29.7600   29.7700   29.7800   29.7900   29.8000   29.8100   29.8200   29.8300
   29.8400   29.8500   29.8600   29.8700   29.8800   29.8900   29.9000   29.9100
   29.9200   29.9300   29.9400   29.9500   29.9600   29.9700   29.9800   29.9900
   30.0000   30.0100   30.0200   30.0300   30.0400   30.0500   30.0600   30.0700
   30.0800   30.0900   30.1000   30.1100   30.1200   30.1300   30.1400   30.1500
   30.1600   30.1700   30.1800   30.1900   30.2000   30.2100   30.2200   30.2300
   30.2400   30.2500   30.2600   30.2700   30.2800   30.2900   30.3000   30.3100
   30.3200   30.3300   30.3400   30.3500   30.3600   30.3700   30.3800   30.3900
   30.4000   30.4100   30.4200   30.4300   30.4400   30.4500   30.4600   30.4700
   30.4800   30.4900   30.5000   30.5100   30.5200   30.5300   30.5400   30.5500
   30.5600   30.5700   30.5800   30.5900   30.6000   30.6100   30.6200   30.6300
   30.6400   30.6500   30.6600   30.6700   30.6800   30.6900   30.7000   30.7100
   30.7200   30.7300   30.7400   30.7500   30.7600   30.7700   30.7800   30.7900
   30.8000   30.8100   30.8200   30.8300   30.8400   30.8500   30.8600   30.8700
   30.8800   30.8900   30.9000   30.9100   30.9200   30.9300   30.9400   30.9500
   30.9600   30.9700   30.9800   30.9900   31.0000   31.0100   31.0200   31.0300
   31.0400   31.0500   31.0600   31.0700   31.0800   31.0900   31.1000   31.1100
   31.1200   31.1300   31.1400   31.1500   31.1600   31.1700   31.1800   31.1900
   31.2000   31.2100   31.2200   31.2300   31.2400   31.2500   31.2600   31.2700
   31.2800   31.2900   31.3000   31.3100   31.3200   31.3300   31.3400   31.3500
   31.3600   31.3700   31.3800   31.3900   31.4000   31.4100   31.4200   31.4300
   31.4400   31.4500   31.4600   31.4700   31.4800   31.4900   31.5000   31.5100
   31.5200   31.5300   31.5400   31.5500   31.5600   31.5700   31.5800   31.5900
   31.6000   31.6100   31.6200   31.6300   31.6400   31.6500   31.6600   31.6700
   31.6800   31.6900   31.7000   31.7100   31.7200   31.7300   31.7400   31.7500
   31.7600   31.7700   31.7800   31.7900   31.8000   31.8100   31.8200   31.8300
   31.8400   31.8500   31.8600   31.8700   31.8800   31.8900   31.9000   31.9100
   31.9200   31.9300   31.9400   31.9500   31.9600   31.9700   31.9800   31.9900
   32.0000   32.0100   32.0200   32.0300   32.0400   32.0500   32.0600   32.0700
   32.0800   32.0900   32.1000   32.1100   32.1200   32.1300   32.1400   32.1500
   32.1600   32.1700   32.1800   32.1900   32.2000   32.2100   32.2200   32.2300
   32.2400   32.2500   32.2600   32.2700   32.2800   32.2900   32.3000   32.3100
   32.3200   32.3300   32.3400   32.3500   32.3600   32.3700   32.3800   32.3900
   32.4000   32.4100   32.4200   32.4300   32.4400   32.4500   32.4600   32.4700
   32.4800   32.4900   32.5000   32.5100   32.5200   32.5300   32.5400   32.5500
   32.5600   32.5700   32.5800   32.5900   32.6000   32.6100   32.6200   32.6300
   32.6400   32.6500   32.6600   32.6700   32.6800   32.6900   32.7000   32.7100
   32.7200   32.7300   32.7400   32.7500   32.7600   32.7700   32.7800   32.7900
   32.8000   32.8100   32.8200   32.8300   32.8400   32.8500   32.8600   32.8700
   32.8800   32.8900   32.9000   32.9100   32.9200   32.9300   32.9400   32.9500
   32.9600   32.9700   32.9800   32.9900   33.0000   33.0100   33.0200   33.0300
   33.0400   33.0500   33.0600   33.0700   33.0800   33.0900   33.1000   33.1100
   33.1200   33.1300   33.1400   33.1500   33.1600   33.1700   33.1800   33.1900
   33.2000   33.2100   33.2200   33.2300   33.2400   33.2500   33.2600   33.2700
   33.2800   33.2900   33.3000   33.3100   33.3200   33.3300   33.3400   33.3500
   33.3600   33.3700   33.3800   33.3900   33.4000   33.4100   33.4200   33.4300
   33.4400   33.4500   33.4600   33.4700   33.4800   33.4900   33.5000   33.5100
   33.5200   33.5300   33.5400   33.5500   33.5600   33.5700   33.5800   33.5900
   33.6000   33.6100   33.6200   33.6300   33.6400   33.6500   33.6600   33.6700
   33.6800   33.6900   33.7000   33.7100   33.7200   33.7300   33.7400   33.7500
   33.7600   33.7700   33.7800   33.7900   33.8000   33.8100   33.8200   33.8300
   33.8400   33.8500   33.8600   33.8700   33.8800   33.8900   33.9000   33.9100
   33.9200   33.9300   33.9400   33.9500   33.9600   33.9700   33.9800   33.9900
   34.0000   34.0100   34.0200   34.0300   34.0400   34.0500   34.0600   34.0700
   34.0800   34.0900   34.1000   34.1100   34.1200   34.1300   34.1400   34.1500
   34.1600   34.1700   34.1800   34.1900   34.2000   34.2100   34.2200   34.2300
   34.2400   34.2500   34.2600   34.2700   34.2800   34.2900   34.3000   34.3100
   34.3200   34.3300   34.3400   34.3500   34.3600   34.3700   34.3800   34.3900
   34.4000   34.4100   34.4200   34.4300   34.4400   34.4500   34.4600   34.4700
   34.4800   34.4900   34.5000   34.5100   34.5200   34.5300   34.5400   34.5500
   34.5600   34.5700   34.5800   34.5900   34.6000   34.6100   34.6200   34.6300
   34.6400   34.6500   34.6600   34.6700   34.6800   34.6900   34.7000   34.7100
   34.7200   34.7300   34.7400   34.7500   34.7600   34.7700   34.7800   34.7900
   34.8000   34.8100   34.8200   34.8300   34.8400   34.8500   34.8600   34.8700
   34.8800   34.8900   34.9000   34.9100   34.9200   34.9300   34.9400   34.9500
   34.9600   34.9700   34.9800   34.9900   35.0000   35.0100   35.0200   35.0300
   35.0400   35.0500   35.0600   35.0700   35.0800   35.0900   35.1000   35.1100
   35.1200   35.1300   35.1400   35.1500   35.1600   35.1700   35.1800   35.1900
   35.2000   35.2100   35.2200   35.2300   35.2400   35.2500   35.2600   35.2700
   35.2800   35.2900   35.3000   35.3100   35.3200   35.3300   35.3400   35.3500
   35.3600   35.3700   35.3800   35.3900   35.4000   35.4100   35.4200   35.4300
   35.4400   35.4500   35.4600   35.4700   35.4800   35.4900   35.5000   35.5100
   35.5200   35.5300   35.5400   35.5500   35.5600   35.5700   35.5800   35.5900
   35.6000   35.6100   35.6200   35.6300   35.6400   35.6500   35.6600   35.6700
   35.6800   35.6900   35.7000   35.7100   35.7200   35.7300   35.7400   35.7500
   35.7600   35.7700   35.7800   35.7900   35.8000   35.8100   35.8200   35.8300
   35.8400   35.8500   35.8600   35.8700   35.8800   35.8900   35.9000   35.9100
   35.9200   35.9300   35.9400   35.9500   35.9600   35.9700   35.9800   35.9900
   36.0000   36.0100   36.0200   36.0300   36.0400   36.0500   36.0600   36.0700
   36.0800   36.0900   36.1000   36.1100   36.1200   36.1300   36.1400   36.1500
   36.1600   36.1700   36.1800   36.1900   36.2000   36.2100   36.2200   36.2300
   36.2400   36.2500   36.2600   36.2700   36.2800   36.2900   36.3000   36.3100
   36.3200   36.3300   36.3400   36.3500   36.3600   36.3700   36.3800   36.3900
   36.4000   36.4100   36.4200   36.4300   36.4400   36.4500   36.4600   36.4700
   36.4800   36.4900   36.5000   36.5100   36.5200   36.5300   36.5400   36.5500
   36.5600   36.5700   36.5800   36.5900   36.6000   36.6100   36.6200   36.6300
   36.6400   36.6500   36.6600   36.6700   36.6800   36.6900   36.7000   36.7100
   36.7200   36.7300   36.7400   36.7500   36.7600   36.7700   36.7800   36.7900
   36.8000   36.8100   36.8200   36.8300   36.8400   36.8500   36.8600   36.8700
   36.8800   36.8900   36.9000   36.9100   36.9200   36.9300   36.9400   36.9500
   36.9600   36.9700   36.9800   36.9900   37.0000   37.0100   37.0200   37.0300
   37.0400   37.0500   37.0600   37.0700   37.0800   37.0900   37.1000   37.1100
   37.1200   37.1300   37.1400   37.1500   37.1600   37.1700   37.1800   37.1900
   37.2000   37.2100   37.2200   37.2300   37.2400   37.2500   37.2600   37.2700
   37.2800   37.2900   37.3000   37.3100   37.3200   37.3300   37.3400   37.3500
   37.3600   37.3700   37.3800   37.3900   37.4000   37.4100   37.4200   37.4300
   37.4400   37.4500   37.4600   37.4700   37.4800   37.4900   37.5000   37.5100
   37.5200   37.5300   37.5400   37.5500   37.5600   37.5700   37.5800   37.5900
   37.6000   37.6100   37.6200   37.6300   37.6400   37.6500   37.6600   37.6700
   37.6800   37.6900   37.7000   37.7100   37.7200   37.7300   37.7400   37.7500
   37.7600   37.7700   37.7800   37.7900   37.8000   37.8100   37.8200   37.8300
   37.8400   37.8500   37.8600   37.8700   37.8800   37.8900   37.9000   37.9100
   37.9200   37.9300   37.9400   37.9500   37.9600   37.9700   37.9800   37.9900
   38.0000   38.0100   38.0200   38.0300   38.0400   38.0500   38.0600   38.0700
   38.0800   38.0900   38.1000   38.1100   38.1200   38.1300   38.1400   38.1500
   38.1600   38.1700   38.1800   38.1900   38.2000   38.2100   38.2200   38.2300
   38.2400   38.2500   38.2600   38.2700   38.2800   38.2900   38.3000   38.3100
   38.3200   38.3300   38.3400   38.3500   38.3600   38.3700   38.3800   38.3900
   38.4000   38.4100   38.4200   38.4300   38.4400   38.4500   38.4600   38.4700
   38.4800   38.4900   38.5000   38.5100   38.5200   38.5300   38.5400   38.5500
   38.5600   38.5700   38.5800   38.5900   38.6000   38.6100   38.6200   38.6300
   38.6400   38.6500   38.6600   38.6700   38.6800   38.6900   38.7000   38.7100
   38.7200   38.7300   38.7400   38.7500   38.7600   38.7700   38.7800   38.7900
   38.8000   38.8100   38.8200   38.8300   38.8400   38.8500   38.8600   38.8700
   38.8800   38.8900   38.9000   38.9100   38.9200   38.9300   38.9400   38.9500
   38.9600   38.9700   38.9800   38.9900   39.0000   39.0100   39.0200   39.0300
   39.0400   39.0500   39.0600   39.0700   39.0800   39.0900   39.1000   39.1100
   39.1200   39.1300   39.1400   39.1500   39.1600   39.1700   39.1800   39.1900
   39.2000   39.2100   39.2200   39.2300   39.2400   39.2500   39.2600   39.2700
   39.2800   39.2900   39.3000   39.3100   39.3200   39.3300   39.3400   39.3500
   39.3600   39.3700   39.3800   39.3900   39.4000   39.4100   39.4200   39.4300
   39.4400   39.4500   39.4600   39.4700   39.4800   39.4900   39.5000   39.5100
   39.5200   39.5300   39.5400   39.5500   39.5600   39.5700   39.5800   39.5900
   39.6000   39.6100   39.6200   39.6300   39.6400   39.6500   39.6600   39.6700
   39.6800   39.6900   39.7000   39.7100   39.7200   39.7300   39.7400   39.7500
   39.7600   39.7700   39.7800   39.7900   39.8000   39.8100   39.8200   39.8300
   39.8400   39.8500   39.8600   39.8700   39.8800   39.8900   39.9000   39.9100
   39.9200   39.9300   39.9400   39.9500   39.9600   39.9700   39.9800   39.9900
   40.0000   40.0100   40.0200   40.0300   40.0400   40.0500   40.0600   40.0700
   40.0800   40.0900   40.1000   40.1100   40.1200   40.1300   40.1400   40.1500
   40.1600   40.1700   40.1800   40.1900   40.2000   40.2100   40.2200   40.2300
   40.2400   40.2500   40.2600   40.2700   40.2800   40.2900   40.3000   40.3100
   40.3200   40.3300   40.3400   40.3500   40.3600   40.3700   40.3800   40.3900
   40.4000   40.4100   40.4200   40.4300   40.4400   40.4500   40.4600   40.4700
   40.4800   40.4900   40.5000   40.5100   40.5200   40.5300   40.5400   40.5500
   40.5600   40.5700   40.5800   40.5900   40.6000   40.6100   40.6200   40.6300
   40.6400   40.6500   40.6600   40.6700   40.6800   40.6900   40.7000   40.7100
   40.7200   40.7300   40.7400   40.7500   40.7600   40.7700   40.7800   40.7900
   40.8000   40.8100   40.8200   40.8300   40.8400   40.8500   40.8600   40.8700
   40.8800   40.8900   40.9000   40.9100   40.9200   40.9300   40.9400   40.9500
   40.9600   40.9700   40.9800   40.9900   41.0000   41.0100   41.0200   41.0300
   41.0400   41.0500   41.0600   41.0700   41.0800   41.0900   41.1000   41.1100
   41.1200   41.1300   41.1400   41.1500   41.1600   41.1700   41.1800   41.1900
   41.2000   41.2100   41.2200   41.2300   41.2400   41.2500   41.2600   41.2700
   41.2800   41.2900   41.3000   41.3100   41.3200   41.3300   41.3400   41.3500
   41.3600   41.3700   41.3800   41.3900   41.4000   41.4100   41.4200   41.4300
   41.4400   41.4500   41.4600   41.4700   41.4800   41.4900   41.5000   41.5100
   41.5200   41.5300   41.5400   41.5500   41.5600   41.5700   41.5800   41.5900
   41.6000   41.6100   41.6200   41.6300   41.6400   41.6500   41.6600   41.6700
   41.6800   41.6900   41.7000   41.7100   41.7200   41.7300   41.7400   41.7500
   41.7600   41.7700   41.7800   41.7900   41.8000   41.8100   41.8200   41.8300
   41.8400   41.8500   41.8600   41.8700   41.8800   41.8900   41.9000   41.9100
   41.9200   41.9300   41.9400   41.9500   41.9600   41.9700   41.9800   41.9900
   42.0000   42.0100   42.0200   42.0300   42.0400   42.0500   42.0600   42.0700
   42.0800   42.0900   42.1000   42.1100   42.1200   42.1300   42.1400   42.1500
   42.1600   42.1700   42.1800   42.1900   42.2000   42.2100   42.2200   42.2300
   42.2400   42.2500   42.2600   42.2700   42.2800   42.2900   42.3000   42.3100
   42.3200   42.3300   42.3400   42.3500   42.3600   42.3700   42.3800   42.3900
   42.4000   42.4100   42.4200   42.4300   42.4400   42.4500   42.4600   42.4700
   42.4800   42.4900   42.5000   42.5100   42.5200   42.5300   42.5400   42.5500
   42.5600   42.5700   42.5800   42.5900   42.6000   42.6100   42.6200   42.6300
   42.6400   42.6500   42.6600   42.6700   42.6800   42.6900   42.7000   42.7100
   42.7200   42.7300   42.7400   42.7500   42.7600   42.7700   42.7800   42.7900
   42.8000   42.8100   42.8200   42.8300   42.8400   42.8500   42.8600   42.8700
   42.8800   42.8900   42.9000   42.9100   42.9200   42.9300   42.9400   42.9500
   42.9600   42.9700   42.9800   42.9900   43.0000   43.0100   43.0200   43.0300
   43.0400   43.0500   43.0600   43.0700   43.0800   43.0900   43.1000   43.1100
   43.1200   43.1300   43.1400   43.1500   43.1600   43.1700   43.1800   43.1900
   43.2000   43.2100   43.2200   43.2300   43.2400   43.2500   43.2600   43.2700
   43.2800   43.2900   43.3000   43.3100   43.3200   43.3300   43.3400   43.3500
   43.3600   43.3700   43.3800   43.3900   43.4000   43.4100   43.4200   43.4300
   43.4400   43.4500   43.4600   43.4700   43.4800   43.4900   43.5000   43.5100
   43.5200   43.5300   43.5400   43.5500   43.5600   43.5700   43.5800   43.5900
   43.6000   43.6100   43.6200   43.6300   43.6400   43.6500   43.6600   43.6700
   43.6800   43.6900   43.7000   43.7100   43.7200   43.7300   43.7400   43.7500
   43.7600   43.7700   43.7800   43.7900   43.8000   43.8100   43.8200   43.8300
   43.8400   43.8500   43.8600   43.8700   43.8800   43.8900   43.9000   43.9100
   43.9200   43.9300   43.9400   43.9500   43.9600   43.9700   43.9800   43.9900
   44.0000   44.0100   44.0200   44.0300   44.0400   44.0500   44.0600   44.0700
   44.0800   44.0900   44.1000   44.1100   44.1200   44.1300   44.1400   44.1500
   44.1600   44.1700   44.1800   44.1900   44.2000   44.2100   44.2200   44.2300
   44.2400   44.2500   44.2600   44.2700   44.2800   44.2900   44.3000   44.3100
   44.3200   44.3300   44.3400   44.3500   44.3600   44.3700   44.3800   44.3900
   44.4000   44.4100   44.4200   44.4300   44.4400   44.4500   44.4600   44.4700
   44.4800   44.4900   44.5000   44.5100   44.5200   44.5300   44.5400   44.5500
   44.5600   44.5700   44.5800   44.5900   44.6000   44.6100   44.6200   44.6300
   44.6400   44.6500   44.6600   44.6700   44.6800   44.6900   44.7000   44.7100
   44.7200   44.7300   44.7400   44.7500   44.7600   44.7700   44.7800   44.7900
   44.8000   44.8100   44.8200   44.8300   44.8400   44.8500   44.8600   44.8700
   44.8800   44.8900   44.9000   44.9100   44.9200   44.9300   44.9400   44.9500
   44.9600   44.9700   44.9800   44.9900   45.0000   45.0100   45.0200   45.0300
   45.0400   45.0500   45.0600   45.0700   45.0800   45.0900   45.1000   45.1100
   45.1200   45.1300   45.1400   45.1500   45.1600   45.1700   45.1800   45.1900
   45.2000   45.2100   45.2200   45.2300   45.2400   45.2500   45.2600   45.2700
   45.2800   45.2900   45.3000   45.3100   45.3200   45.3300   45.3400   45.3500
   45.3600   45.3700   45.3800   45.3900   45.4000   45.4100   45.4200   45.4300
   45.4400   45.4500   45.4600   45.4700   45.4800   45.4900   45.5000   45.5100
   45.5200   45.5300   45.5400   45.5500   45.5600   45.5700   45.5800   45.5900
   45.6000   45.6100   45.6200   45.6300   45.6400   45.6500   45.6600   45.6700
   45.6800   45.6900   45.7000   45.7100   45.7200   45.7300   45.7400   45.7500
   45.7600   45.7700   45.7800   45.7900   45.8000   45.8100   45.8200   45.8300
   45.8400   45.8500   45.8600   45.8700   45.8800   45.8900   45.9000   45.9100
   45.9200   45.9300   45.9400   45.9500   45.9600   45.9700   45.9800   45.9900
   46.0000   46.0100   46.0200   46.0300   46.0400   46.0500   46.0600   46.0700
   46.0800   46.0900   46.1000   46.1100   46.1200   46.1300   46.1400   46.1500
   46.1600   46.1700   46.1800   46.1900   46.2000   46.2100   46.2200   46.2300
   46.2400   46.2500   46.2600   46.2700   46.2800   46.2900   46.3000   46.3100
   46.3200   46.3300   46.3400   46.3500   46.3600   46.3700   46.3800   46.3900
   46.4000   46.4100   46.4200   46.4300   46.4400   46.4500   46.4600   46.4700
   46.4800   46.4900   46.5000   46.5100   46.5200   46.5300   46.5400   46.5500
   46.5600   46.5700   46.5800   46.5900   46.6000   46.6100   46.6200   46.6300
   46.6400   46.6500   46.6600   46.6700   46.6800   46.6900   46.7000   46.7100
   46.7200   46.7300   46.7400   46.7500   46.7600   46.7700   46.7800   46.7900
   46.8000   46.8100   46.8200   46.8300   46.8400   46.8500   46.8600   46.8700
   46.8800   46.8900   46.9000   46.9100   46.9200   46.9300   46.9400   46.9500
   46.9600   46.9700   46.9800   46.9900   47.0000   47.0100   47.0200   47.0300
   47.0400   47.0500   47.0600   47.0700   47.0800   47.0900   47.1000   47.1100
   47.1200   47.1300   47.1400   47.1500   47.1600   47.1700   47.1800   47.1900
   47.2000   47.2100   47.2200   47.2300   47.2400   47.2500   47.2600   47.2700
   47.2800   47.2900   47.3000   47.3100   47.3200   47.3300   47.3400   47.3500
   47.3600   47.3700   47.3800   47.3900   47.4000   47.4100   47.4200   47.4300
   47.4400   47.4500   47.4600   47.4700   47.4800   47.4900   47.5000   47.5100
   47.5200   47.5300   47.5400   47.5500   47.5600   47.5700   47.5800   47.5900
   47.6000   47.6100   47.6200   47.6300   47.6400   47.6500   47.6600   47.6700
   47.6800   47.6900   47.7000   47.7100   47.7200   47.7300   47.7400   47.7500
   47.7600   47.7700   47.7800   47.7900   47.8000   47.8100   47.8200   47.8300
   47.8400   47.8500   47.8600   47.8700   47.8800   47.8900   47.9000   47.9100
   47.9200   47.9300   47.9400   47.9500   47.9600   47.9700   47.9800   47.9900
   48.0000   48.0100   48.0200   48.0300   48.0400   48.0500   48.0600   48.0700
   48.0800   48.0900   48.1000   48.1100   48.1200   48.1300   48.1400   48.1500
   48.1600   48.1700   48.1800   48.1900   48.2000   48.2100   48.2200   48.2300
   48.2400   48.2500   48.2600   48.2700   48.2800   48.2900   48.3000   48.3100
   48.3200   48.3300   48.3400   48.3500   48.3600   48.3700   48.3800   48.3900
   48.4000   48.4100   48.4200   48.4300   48.4400   48.4500   48.4600   48.4700
   48.4800   48.4900   48.5000   48.5100   48.5200   48.5300   48.5400   48.5500
   48.5600   48.5700   48.5800   48.5900   48.6000   48.6100   48.6200   48.6300
   48.6400   48.6500   48.6600   48.6700   48.6800   48.6900   48.7000   48.7100
   48.7200   48.7300   48.7400   48.7500   48.7600   48.7700   48.7800   48.7900
   48.8000   48.8100   48.8200   48.8300   48.8400   48.8500   48.8600   48.8700
   48.8800   48.8900   48.9000   48.9100   48.9200   48.9300   48.9400   48.9500
   48.9600   48.9700   48.9800   48.9900   49.0000   49.0100   49.0200   49.0300
   49.0400   49.0500   49.0600   49.0700   49.0800   49.0900   49.1000   49.1100
   49.1200   49.1300   49.1400   49.1500   49.1600   49.1700   49.1800   49.1900
   49.2000   49.2100   49.2200   49.2300   49.2400   49.2500   49.2600   49.2700
   49.2800   49.2900   49.3000   49.3100   49.3200   49.3300   49.3400   49.3500
   49.3600   49.3700   49.3800   49.3900   49.4000   49.4100   49.4200   49.4300
   49.4400   49.4500   49.4600   49.4700   49.4800   49.4900   49.5000   49.5100
   49.5200   49.5300   49.5400   49.5500   49.5600   49.5700   49.5800   49.5900
   49.6000   49.6100   49.6200   49.6300   49.6400   49.6500   49.6600   49.6700
   49.6800   49.6900   49.7000   49.7100   49.7200   49.7300   49.7400   49.7500
   49.7600   49.7700   49.7800   49.7900   49.8000   49.8100   49.8200   49.8300
   49.8400   49.8500   49.8600   49.8700   49.8800   49.8900   49.9000   49.9100
   49.9200   49.9300   49.9400   49.9500   49.9600   49.9700   49.9800   49.9900
   50.0000   50.0100   50.0200   50.0300   50.0400   50.0500   50.0600   50.0700
   50.0800   50.0900   50.1000   50.1100   50.1200   50.1300   50.1400   50.1500
   50.1600   50.1700   50.1800   50.1900   50.2000   50.2100   50.2200   50.2300
   50.2400   50.2500   50.2600   50.2700   50.2800   50.2900   50.3000   50.3100
   50.3200   50.3300   50.3400   50.3500   50.3600   50.3700   50.3800   50.3900
   50.4000   50.4100   50.4200   50.4300   50.4400   50.4500   50.4600   50.4700
   50.4800   50.4900   50.5000   50.5100   50.5200   50.5300   50.5400   50.5500
   50.5600   50.5700   50.5800   50.5900   50.6000   50.6100   50.6200   50.6300
   50.6400   50.6500   50.6600   50.6700   50.6800   50.6900   50.7000   50.7100
   50.7200   50.7300   50.7400   50.7500   50.7600   50.7700   50.7800   50.7900
   50.8000   50.8100   50.8200   50.8300   50.8400   50.8500   50.8600   50.8700
   50.8800   50.8900   50.9000   50.9100   50.9200   50.9300   50.9400   50.9500
   50.9600   50.9700   50.9800   50.9900   51.0000   51.0100   51.0200   51.0300
   51.0400   51.0500   51.0600   51.0700   51.0800   51.0900   51.1000   51.1100
   51.1200   51.1300   51.1400   51.1500   51.1600   51.1700   51.1800   51.1900
   51.2000   51.2100   51.2200   51.2300   51.2400   51.2500   51.2600   51.2700
   51.2800   51.2900   51.3000   51.3100   51.3200   51.3300   51.3400   51.3500
   51.3600   51.3700   51.3800   51.3900   51.4000   51.4100   51.4200   51.4300
   51.4400   51.4500   51.4600   51.4700   51.4800   51.4900   51.5000   51.5100
   51.5200   51.5300   51.5400   51.5500   51.5600   51.5700   51.5800   51.5900
   51.6000   51.6100   51.6200   51.6300   51.6400   51.6500   51.6600   51.6700
   51.6800   51.6900   51.7000   51.7100   51.7200   51.7300   51.7400   51.7500
   51.7600   51.7700   51.7800   51.7900   51.8000   51.8100   51.8200   51.8300
   51.8400   51.8500   51.8600   51.8700   51.8800   51.8900   51.9000   51.9100
   51.9200   51.9300   51.9400   51.9500   51.9600   51.9700   51.9800   51.9900
   52.0000   52.0100   52.0200   52.0300   52.0400   52.0500   52.0600   52.0700
   52.0800   52.0900   52.1000   52.1100   52.1200   52.1300   52.1400   52.1500
   52.1600   52.1700   52.1800   52.1900   52.2000   52.2100   52.2200   52.2300
   52.2400   52.2500   52.2600   52.2700   52.2800   52.2900   52.3000   52.3100
   52.3200   52.3300   52.3400   52.3500   52.3600   52.3700   52.3800   52.3900
   52.4000   52.4100   52.4200   52.4300   52.4400   52.4500   52.4600   52.4700
   52.4800   52.4900   52.5000   52.5100   52.5200   52.5300   52.5400   52.5500
   52.5600   52.5700   52.5800   52.5900   52.6000   52.6100   52.6200   52.6300
   52.6400   52.6500   52.6600   52.6700   52.6800   52.6900   52.7000   52.7100
   52.7200   52.7300   52.7400   52.7500   52.7600   52.7700   52.7800   52.7900
   52.8000   52.8100   52.8200   52.8300   52.8400   52.8500   52.8600   52.8700
   52.8800   52.8900   52.9000   52.9100   52.9200   52.9300   52.9400   52.9500
   52.9600   52.9700   52.9800   52.9900   53.0000   53.0100   53.0200   53.0300
   53.0400   53.0500   53.0600   53.0700   53.0800   53.0900   53.1000   53.1100
   53.1200   53.1300   53.1400   53.1500   53.1600   53.1700   53.1800   53.1900
   53.2000   53.2100   53.2200   53.2300   53.2400   53.2500   53.2600   53.2700
   53.2800   53.2900   53.3000   53.3100   53.3200   53.3300   53.3400   53.3500
   53.3600   53.3700   53.3800   53.3900   53.4000   53.4100   53.4200   53.4300
   53.4400   53.4500   53.4600   53.4700   53.4800   53.4900   53.5000   53.5100
   53.5200   53.5300   53.5400   53.5500   53.5600   53.5700   53.5800   53.5900
   53.6000   53.6100   53.6200   53.6300   53.6400   53.6500   53.6600   53.6700
   53.6800   53.6900   53.7000   53.7100   53.7200   53.7300   53.7400   53.7500
   53.7600   53.7700   53.7800   53.7900   53.8000   53.8100   53.8200   53.8300
   53.8400   53.8500   53.8600   53.8700   53.8800   53.8900   53.9000   53.9100
   53.9200   53.9300   53.9400   53.9500   53.9600   53.9700   53.9800   53.9900
   54.0000   54.0100   54.0200   54.0300   54.0400   54.0500   54.0600   54.0700
   54.0800   54.0900   54.1000   54.1100   54.1200   54.1300   54.1400   54.1500
   54.1600   54.1700   54.1800   54.1900   54.2000   54.2100   54.2200   54.2300
   54.2400   54.2500   54.2600   54.2700   54.2800   54.2900   54.3000   54.3100
   54.3200   54.3300   54.3400   54.3500   54.3600   54.3700   54.3800   54.3900
   54.4000   54.4100   54.4200   54.4300   54.4400   54.4500   54.4600   54.4700
   54.4800   54.4900   54.5000   54.5100   54.5200   54.5300   54.5400   54.5500
   54.5600   54.5700   54.5800   54.5900   54.6000   54.6100   54.6200   54.6300
   54.6400   54.6500   54.6600   54.6700   54.6800   54.6900   54.7000   54.7100
   54.7200   54.7300   54.7400   54.7500   54.7600   54.7700   54.7800   54.7900
   54.8000   54.8100   54.8200   54.8300   54.8400   54.8500   54.8600   54.8700
   54.8800   54.8900   54.9000   54.9100   54.9200   54.9300   54.9400   54.9500
   54.9600   54.9700   54.9800   54.9900   55.0000   55.0100   55.0200   55.0300
   55.0400   55.0500   55.0600   55.0700   55.0800   55.0900   55.1000   55.1100
   55.1200   55.1300   55.1400   55.1500   55.1600   55.1700   55.1800   55.1900
   55.2000   55.2100   55.2200   55.2300   55.2400   55.2500   55.2600   55.2700
   55.2800   55.2900   55.3000   55.3100   55.3200   55.3300   55.3400   55.3500
   55.3600   55.3700   55.3800   55.3900   55.4000   55.4100   55.4200   55.4300
   55.4400   55.4500   55.4600   55.4700   55.4800   55.4900   55.5000   55.5100
   55.5200   55.5300   55.5400   55.5500   55.5600   55.5700   55.5800   55.5900
   55.6000   55.6100   55.6200   55.6300   55.6400   55.6500   55.6600   55.6700
   55.6800   55.6900   55.7000   55.7100   55.7200   55.7300   55.7400   55.7500
   55.7600   55.7700   55.7800   55.7900   55.8000   55.8100   55.8200   55.8300
   55.8400   55.8500   55.8600   55.8700   55.8800   55.8900   55.9000   55.9100
   55.9200   55.9300   55.9400   55.9500   55.9600   55.9700   55.9800   55.9900
   56.0000   56.0100   56.0200   56.0300   56.0400   56.0500   56.0600   56.0700
   56.0800   56.0900   56.1000   56.1100   56.1200   56.1300   56.1400   56.1500
   56.1600   56.1700   56.1800   56.1900   56.2000   56.2100   56.2200   56.2300
   56.2400   56.2500   56.2600   56.2700   56.2800   56.2900   56.3000   56.3100
   56.3200   56.3300   56.3400   56.3500   56.3600   56.3700   56.3800   56.3900
   56.4000   56.4100   56.4200   56.4300   56.4400   56.4500   56.4600   56.4700
   56.4800   56.4900   56.5000   56.5100   56.5200   56.5300   56.5400   56.5500
   56.5600   56.5700   56.5800   56.5900   56.6000   56.6100   56.6200   56.6300
   56.6400   56.6500   56.6600   56.6700   56.6800   56.6900   56.7000   56.7100
   56.7200   56.7300   56.7400   56.7500   56.7600   56.7700   56.7800   56.7900
   56.8000   56.8100   56.8200   56.8300   56.8400   56.8500   56.8600   56.8700
   56.8800   56.8900   56.9000   56.9100   56.9200   56.9300   56.9400   56.9500
   56.9600   56.9700   56.9800   56.9900   57.0000   57.0100   57.0200   57.0300
   57.0400   57.0500   57.0600   57.0700   57.0800   57.0900   57.1000   57.1100
   57.1200   57.1300   57.1400   57.1500   57.1600   57.1700   57.1800   57.1900
   57.2000   57.2100   57.2200   57.2300   57.2400   57.2500   57.2600   57.2700
   57.2800   57.2900   57.3000   57.3100   57.3200   57.3300   57.3400   57.3500
   57.3600   57.3700   57.3800   57.3900   57.4000   57.4100   57.4200   57.4300
   57.4400   57.4500   57.4600   57.4700   57.4800   57.4900   57.5000   57.5100
   57.5200   57.5300   57.5400   57.5500   57.5600   57.5700   57.5800   57.5900
   57.6000   57.6100   57.6200   57.6300   57.6400   57.6500   57.6600   57.6700
   57.6800   57.6900   57.7000   57.7100   57.7200   57.7300   57.7400   57.7500
   57.7600   57.7700   57.7800   57.7900   57.8000   57.8100   57.8200   57.8300
   57.8400   57.8500   57.8600   57.8700   57.8800   57.8900   57.9000   57.9100
   57.9200   57.9300   57.9400   57.9500   57.9600   57.9700   57.9800   57.9900
   58.0000   58.0100   58.0200   58.0300   58.0400   58.0500   58.0600   58.0700
   58.0800   58.0900   58.1000   58.1100   58.1200   58.1300   58.1400   58.1500
   58.1600   58.1700   58.1800   58.1900   58.2000   58.2100   58.2200   58.2300
   58.2400   58.2500   58.2600   58.2700   58.2800   58.2900   58.3000   58.3100
   58.3200   58.3300   58.3400   58.3500   58.3600   58.3700   58.3800   58.3900
   58.4000   58.4100   58.4200   58.4300   58.4400   58.4500   58.4600   58.4700
   58.4800   58.4900   58.5000   58.5100   58.5200   58.5300   58.5400   58.5500
   58.5600   58.5700   58.5800   58.5900   58.6000   58.6100   58.6200   58.6300
   58.6400   58.6500   58.6600   58.6700   58.6800   58.6900   58.7000   58.7100
   58.7200   58.7300   58.7400   58.7500   58.7600   58.7700   58.7800   58.7900
   58.8000   58.8100   58.8200   58.8300   58.8400   58.8500   58.8600   58.8700
   58.8800   58.8900   58.9000   58.9100   58.9200   58.9300   58.9400   58.9500
   58.9600   58.9700   58.9800   58.9900   59.0000   59.0100   59.0200   59.0300
   59.0400   59.0500   59.0600   59.0700   59.0800   59.0900   59.1000   59.1100
   59.1200   59.1300   59.1400   59.1500   59.1600   59.1700   59.1800   59.1900
   59.2000   59.2100   59.2200   59.2300   59.2400   59.2500   59.2600   59.2700
   59.2800   59.2900   59.3000   59.3100   59.3200   59.3300   59.3400   59.3500
   59.3600   59.3700   59.3800   59.3900   59.4000   59.4100   59.4200   59.4300
   59.4400   59.4500   59.4600   59.4700   59.4800   59.4900   59.5000   59.5100
   59.5200   59.5300   59.5400   59.5500   59.5600   59.5700   59.5800   59.5900
   59.6000   59.6100   59.6200   59.6300   59.6400   59.6500   59.6600   59.6700
   59.6800   59.6900   59.7000   59.7100   59.7200   59.7300   59.7400   59.7500
   59.7600   59.7700   59.7800   59.7900   59.8000   59.8100   59.8200   59.8300
   59.8400   59.8500   59.8600   59.8700   59.8800   59.8900   59.9000   59.9100
   59.9200   59.9300   59.9400   59.9500   59.9600   59.9700   59.9800   59.9900
   60.0000   60.0100   60.0200   60.0300   60.0400   60.0500   60.0600   60.0700
   60.0800   60.0900   60.1000   60.1100   60.1200   60.1300   60.1400   60.1500
   60.1600   60.1700   60.1800   60.1900   60.2000   60.2100   60.2200   60.2300
   60.2400   60.2500   60.2600   60.2700   60.2800   60.2900   60.3000   60.3100
   60.3200   60.3300   60.3400   60.3500   60.3600   60.3700   60.3800   60.3900
   60.4000   60.4100   60.4200   60.4300   60.4400   60.4500   60.4600   60.4700
   60.4800   60.4900   60.5000   60.5100   60.5200   60.5300   60.5400   60.5500
   60.5600   60.5700   60.5800   60.5900   60.6000   60.6100   60.6200   60.6300
   60.6400   60.6500   60.6600   60.6700   60.6800   60.6900   60.7000   60.7100
   60.7200   60.7300   60.7400   60.7500   60.7600   60.7700   60.7800   60.7900
   60.8000   60.8100   60.8200   60.8300   60.8400   60.8500   60.8600   60.8700
   60.8800   60.8900   60.9000   60.9100   60.9200   60.9300   60.9400   60.9500
   60.9600   60.9700   60.9800   60.9900   61.0000   61.0100   61.0200   61.0300
   61.0400   61.0500   61.0600   61.0700   61.0800   61.0900   61.1000   61.1100
   61.1200   61.1300   61.1400   61.1500   61.1600   61.1700   61.1800   61.1900
   61.2000   61.2100   61.2200   61.2300   61.2400   61.2500   61.2600   61.2700
   61.2800   61.2900   61.3000   61.3100   61.3200   61.3300   61.3400   61.3500
   61.3600   61.3700   61.3800   61.3900   61.4000   61.4100   61.4200   61.4300
   61.4400   61.4500   61.4600   61.4700   61.4800   61.4900   61.5000   61.5100
   61.5200   61.5300   61.5400   61.5500   61.5600   61.5700   61.5800   61.5900
   61.6000   61.6100   61.6200   61.6300   61.6400   61.6500   61.6600   61.6700
   61.6800   61.6900   61.7000   61.7100   61.7200   61.7300   61.7400   61.7500
   61.7600   61.7700   61.7800   61.7900   61.8000   61.8100   61.8200   61.8300
   61.8400   61.8500   61.8600   61.8700   61.8800   61.8900   61.9000   61.9100
   61.9200   61.9300   61.9400   61.9500   61.9600   61.9700   61.9800   61.9900
   62.0000   62.0100   62.0200   62.0300   62.0400   62.0500   62.0600   62.0700
   62.0800   62.0900   62.1000   62.1100   62.1200   62.1300   62.1400   62.1500
   62.1600   62.1700   62.1800   62.1900   62.2000   62.2100   62.2200   62.2300
   62.2400   62.2500   62.2600   62.2700   62.2800   62.2900   62.3000   62.3100
   62.3200   62.3300   62.3400   62.3500   62.3600   62.3700   62.3800   62.3900
   62.4000   62.4100   62.4200   62.4300   62.4400   62.4500   62.4600   62.4700
   62.4800   62.4900   62.5000   62.5100   62.5200   62.5300   62.5400   62.5500
   62.5600   62.5700   62.5800   62.5900   62.6000   62.6100   62.6200   62.6300
   62.6400   62.6500   62.6600   62.6700   62.6800   62.6900   62.7000   62.7100
   62.7200   62.7300   62.7400   62.7500   62.7600   62.7700   62.7800   62.7900
   62.8000   62.8100   62.8200   62.8300   62.8400   62.8500   62.8600   62.8700
   62.8800   62.8900   62.9000   62.9100   62.9200   62.9300   62.9400   62.9500
   62.9600   62.9700   62.9800   62.9900   63.0000   63.0100   63.0200   63.0300
   63.0400   63.0500   63.0600   63.0700   63.0800   63.0900   63.1000   63.1100
   63.1200   63.1300   63.1400   63.1500   63.1600   63.1700   63.1800   63.1900
   63.2000   63.2100   63.2200   63.2300   63.2400   63.2500   63.2600   63.2700
   63.2800   63.2900   63.3000   63.3100   63.3200   63.3300   63.3400   63.3500
   63.3600   63.3700   63.3800   63.3900   63.4000   63.4100   63.4200   63.4300
   63.4400   63.4500   63.4600   63.4700   63.4800   63.4900   63.5000   63.5100
   63.5200   63.5300   63.5400   63.5500   63.5600   63.5700   63.5800   63.5900
   63.6000   63.6100   63.6200   63.6300   63.6400   63.6500   63.6600   63.6700
   63.6800   63.6900   63.7000   63.7100   63.7200   63.7300   63.7400   63.7500
   63.7600   63.7700   63.7800   63.7900   63.8000   63.8100   63.8200   63.8300
   63.8400   63.8500   63.8600   63.8700   63.8800   63.8900   63.9000   63.9100
   63.9200   63.9300   63.9400   63.9500   63.9600   63.9700   63.9800   63.9900
   64.0000   64.0100   64.0200   64.0300   64.0400   64.0500   64.0600   64.0700
   64.0800   64.0900   64.1000   64.1100   64.1200   64.1300   64.1400   64.1500
   64.1600   64.1700   64.1800   64.1900   64.2000   64.2100   64.2200   64.2300
   64.2400   64.2500   64.2600   64.2700   64.2800   64.2900   64.3000   64.3100
   64.3200   64.3300   64.3400   64.3500   64.3600   64.3700   64.3800   64.3900
   64.4000   64.4100   64.4200   64.4300   64.4400   64.4500   64.4600   64.4700
   64.4800   64.4900   64.5000   64.5100   64.5200   64.5300   64.5400   64.5500
   64.5600   64.5700   64.5800   64.5900   64.6000   64.6100   64.6200   64.6300
   64.6400   64.6500   64.6600   64.6700   64.6800   64.6900   64.7000   64.7100
   64.7200   64.7300   64.7400   64.7500   64.7600   64.7700   64.7800   64.7900
   64.8000   64.8100   64.8200   64.8300   64.8400   64.8500   64.8600   64.8700
   64.8800   64.8900   64.9000   64.9100   64.9200   64.9300   64.9400   64.9500
   64.9600   64.9700   64.9800   64.9900   65.0000   65.0100   65.0200   65.0300
   65.0400   65.0500   65.0600   65.0700   65.0800   65.0900   65.1000   65.1100
   65.1200   65.1300   65.1400   65.1500   65.1600   65.1700   65.1800   65.1900
   65.2000   65.2100   65.2200   65.2300   65.2400   65.2500   65.2600   65.2700
   65.2800   65.2900   65.3000   65.3100   65.3200   65.3300   65.3400   65.3500
   65.3600   65.3700   65.3800   65.3900   65.4000   65.4100   65.4200   65.4300
   65.4400   65.4500   65.4600   65.4700   65.4800   65.4900   65.5000   65.5100
   65.5200   65.5300   65.5400   65.5500   65.5600   65.5700   65.5800   65.5900
   65.6000   65.6100   65.6200   65.6300   65.6400   65.6500   65.6600   65.6700
   65.6800   65.6900   65.7000   65.7100   65.7200   65.7300   65.7400   65.7500
   65.7600   65.7700   65.7800   65.7900   65.8000   65.8100   65.8200   65.8300
   65.8400   65.8500   65.8600   65.8700   65.8800   65.8900   65.9000   65.9100
   65.9200   65.9300   65.9400   65.9500   65.9600   65.9700   65.9800   65.9900
   66.0000   66.0100   66.0200   66.0300   66.0400   66.0500   66.0600   66.0700
   66.0800   66.0900   66.1000   66.1100   66.1200   66.1300   66.1400   66.1500
   66.1600   66.1700   66.1800   66.1900   66.2000   66.2100   66.2200   66.2300
   66.2400   66.2500   66.2600   66.2700   66.2800   66.2900   66.3000   66.3100
   66.3200   66.3300   66.3400   66.3500   66.3600   66.3700   66.3800   66.3900
   66.4000   66.4100   66.4200   66.4300   66.4400   66.4500   66.4600   66.4700
   66.4800   66.4900   66.5000   66.5100   66.5200   66.5300   66.5400   66.5500
   66.5600   66.5700   66.5800   66.5900   66.6000   66.6100   66.6200   66.6300
   66.6400   66.6500   66.6600   66.6700   66.6800   66.6900   66.7000   66.7100
   66.7200   66.7300   66.7400   66.7500   66.7600   66.7700   66.7800   66.7900
   66.8000   66.8100   66.8200   66.8300   66.8400   66.8500   66.8600   66.8700
   66.8800   66.8900   66.9000   66.9100   66.9200   66.9300   66.9400   66.9500
   66.9600   66.9700   66.9800   66.9900   67.0000   67.0100   67.0200   67.0300
   67.0400   67.0500   67.0600   67.0700   67.0800   67.0900   67.1000   67.1100
   67.1200   67.1300   67.1400   67.1500   67.1600   67.1700   67.1800   67.1900
   67.2000   67.2100   67.2200   67.2300   67.2400   67.2500   67.2600   67.2700
   67.2800   67.2900   67.3000   67.3100   67.3200   67.3300   67.3400   67.3500
   67.3600   67.3700   67.3800   67.3900   67.4000   67.4100   67.4200   67.4300
   67.4400   67.4500   67.4600   67.4700   67.4800   67.4900   67.5000   67.5100
   67.5200   67.5300   67.5400   67.5500   67.5600   67.5700   67.5800   67.5900
   67.6000   67.6100   67.6200   67.6300   67.6400   67.6500   67.6600   67.6700
   67.6800   67.6900   67.7000   67.7100   67.7200   67.7300   67.7400   67.7500
   67.7600   67.7700   67.7800   67.7900   67.8000   67.8100   67.8200   67.8300
   67.8400   67.8500   67.8600   67.8700   67.8800   67.8900   67.9000   67.9100
   67.9200   67.9300   67.9400   67.9500   67.9600   67.9700   67.9800   67.9900
   68.0000   68.0100   68.0200   68.0300   68.0400   68.0500   68.0600   68.0700
   68.0800   68.0900   68.1000   68.1100   68.1200   68.1300   68.1400   68.1500
   68.1600   68.1700   68.1800   68.1900   68.2000   68.2100   68.2200   68.2300
   68.2400   68.2500   68.2600   68.2700   68.2800   68.2900   68.3000   68.3100
   68.3200   68.3300   68.3400   68.3500   68.3600   68.3700   68.3800   68.3900
   68.4000   68.4100   68.4200   68.4300   68.4400   68.4500   68.4600   68.4700
   68.4800   68.4900   68.5000   68.5100   68.5200   68.5300   68.5400   68.5500
   68.5600   68.5700   68.5800   68.5900   68.6000   68.6100   68.6200   68.6300
   68.6400   68.6500   68.6600   68.6700   68.6800   68.6900   68.7000   68.7100
   68.7200   68.7300   68.7400   68.7500   68.7600   68.7700   68.7800   68.7900
   68.8000   68.8100   68.8200   68.8300   68.8400   68.8500   68.8600   68.8700
   68.8800   68.8900   68.9000   68.9100   68.9200   68.9300   68.9400   68.9500
   68.9600   68.9700   68.9800   68.9900   69.0000   69.0100   69.0200   69.0300
   69.0400   69.0500   69.0600   69.0700   69.0800   69.0900   69.1000   69.1100
   69.1200   69.1300   69.1400   69.1500   69.1600   69.1700   69.1800   69.1900
   69.2000   69.2100   69.2200   69.2300   69.2400   69.2500   69.2600   69.2700
   69.2800   69.2900   69.3000   69.3100   69.3200   69.3300   69.3400   69.3500
   69.3600   69.3700   69.3800   69.3900   69.4000   69.4100   69.4200   69.4300
   69.4400   69.4500   69.4600   69.4700   69.4800   69.4900   69.5000   69.5100
   69.5200   69.5300   69.5400   69.5500   69.5600   69.5700   69.5800   69.5900
   69.6000   69.6100   69.6200   69.6300   69.6400   69.6500   69.6600   69.6700
   69.6800   69.6900   69.7000   69.7100   69.7200   69.7300   69.7400   69.7500
   69.7600   69.7700   69.7800   69.7900   69.8000   69.8100   69.8200   69.8300
   69.8400   69.8500   69.8600   69.8700   69.8800   69.8900   69.9000   69.9100
   69.9200   69.9300   69.9400   69.9500   69.9600   69.9700   69.9800   69.9900
   70.0000   70.0100   70.0200   70.0300   70.0400   70.0500   70.0600   70.0700
   70.0800   70.0900   70.1000   70.1100   70.1200   70.1300   70.1400   70.1500
   70.1600   70.1700   70.1800   70.1900   70.2000   70.2100   70.2200   70.2300
   70.2400   70.2500   70.2600   70.2700   70.2800   70.2900   70.3000   70.3100
   70.3200   70.3300   70.3400   70.3500   70.3600   70.3700   70.3800   70.3900
   70.4000   70.4100   70.4200   70.4300   70.4400   70.4500   70.4600   70.4700
   70.4800   70.4900   70.5000   70.5100   70.5200   70.5300   70.5400   70.5500
   70.5600   70.5700   70.5800   70.5900   70.6000   70.6100   70.6200   70.6300
   70.6400   70.6500   70.6600   70.6700   70.6800   70.6900   70.7000   70.7100
   70.7200   70.7300   70.7400   70.7500   70.7600   70.7700   70.7800   70.7900
   70.8000   70.8100   70.8200   70.8300   70.8400   70.8500   70.8600   70.8700
   70.8800   70.8900   70.9000   70.9100   70.9200   70.9300   70.9400   70.9500
   70.9600   70.9700   70.9800   70.9900   71.0000   71.0100   71.0200   71.0300
   71.0400   71.0500   71.0600   71.0700   71.0800   71.0900   71.1000   71.1100
   71.1200   71.1300   71.1400   71.1500   71.1600   71.1700   71.1800   71.1900
   71.2000   71.2100   71.2200   71.2300   71.2400   71.2500   71.2600   71.2700
   71.2800   71.2900   71.3000   71.3100   71.3200   71.3300   71.3400   71.3500
   71.3600   71.3700   71.3800   71.3900   71.4000   71.4100   71.4200   71.4300
   71.4400   71.4500   71.4600   71.4700   71.4800   71.4900   71.5000   71.5100
   71.5200   71.5300   71.5400   71.5500   71.5600   71.5700   71.5800   71.5900
   71.6000   71.6100   71.6200   71.6300   71.6400   71.6500   71.6600   71.6700
   71.6800   71.6900   71.7000   71.7100   71.7200   71.7300   71.7400   71.7500
   71.7600   71.7700   71.7800   71.7900   71.8000   71.8100   71.8200   71.8300
   71.8400   71.8500   71.8600   71.8700   71.8800   71.8900   71.9000   71.9100
   71.9200   71.9300   71.9400   71.9500   71.9600   71.9700   71.9800   71.9900
   72.0000   72.0100   72.0200   72.0300   72.0400   72.0500   72.0600   72.0700
   72.0800   72.0900   72.1000   72.1100   72.1200   72.1300   72.1400   72.1500
   72.1600   72.1700   72.1800   72.1900   72.2000   72.2100   72.2200   72.2300
   72.2400   72.2500   72.2600   72.2700   72.2800   72.2900   72.3000   72.3100
   72.3200   72.3300   72.3400   72.3500   72.3600   72.3700   72.3800   72.3900
   72.4000   72.4100   72.4200   72.4300   72.4400   72.4500   72.4600   72.4700
   72.4800   72.4900   72.5000   72.5100   72.5200   72.5300   72.5400   72.5500
   72.5600   72.5700   72.5800   72.5900   72.6000   72.6100   72.6200   72.6300
   72.6400   72.6500   72.6600   72.6700   72.6800   72.6900   72.7000   72.7100
   72.7200   72.7300   72.7400   72.7500   72.7600   72.7700   72.7800   72.7900
   72.8000   72.8100   72.8200   72.8300   72.8400   72.8500   72.8600   72.8700
   72.8800   72.8900   72.9000   72.9100   72.9200   72.9300   72.9400   72.9500
   72.9600   72.9700   72.9800   72.9900   73.0000   73.0100   73.0200   73.0300
   73.0400   73.0500   73.0600   73.0700   73.0800   73.0900   73.1000   73.1100
   73.1200   73.1300   73.1400   73.1500   73.1600   73.1700   73.1800   73.1900
   73.2000   73.2100   73.2200   73.2300   73.2400   73.2500   73.2600   73.2700
   73.2800   73.2900   73.3000   73.3100   73.3200   73.3300   73.3400   73.3500
   73.3600   73.3700   73.3800   73.3900   73.4000   73.4100   73.4200   73.4300
   73.4400   73.4500   73.4600   73.4700   73.4800   73.4900   73.5000   73.5100
   73.5200   73.5300   73.5400   73.5500   73.5600   73.5700   73.5800   73.5900
   73.6000   73.6100   73.6200   73.6300   73.6400   73.6500   73.6600   73.6700
   73.6800   73.6900   73.7000   73.7100   73.7200   73.7300   73.7400   73.7500
   73.7600   73.7700   73.7800   73.7900   73.8000   73.8100   73.8200   73.8300
   73.8400   73.8500   73.8600   73.8700   73.8800   73.8900   73.9000   73.9100
   73.9200   73.9300   73.9400   73.9500   73.9600   73.9700   73.9800   73.9900
   74.0000   74.0100   74.0200   74.0300   74.0400   74.0500   74.0600   74.0700
   74.0800   74.0900   74.1000   74.1100   74.1200   74.1300   74.1400   74.1500
   74.1600   74.1700   74.1800   74.1900   74.2000   74.2100   74.2200   74.2300
   74.2400   74.2500   74.2600   74.2700   74.2800   74.2900   74.3000   74.3100
   74.3200   74.3300   74.3400   74.3500   74.3600   74.3700   74.3800   74.3900
   74.4000   74.4100   74.4200   74.4300   74.4400   74.4500   74.4600   74.4700
   74.4800   74.4900   74.5000   74.5100   74.5200   74.5300   74.5400   74.5500
   74.5600   74.5700   74.5800   74.5900   74.6000   74.6100   74.6200   74.6300
   74.6400   74.6500   74.6600   74.6700   74.6800   74.6900   74.7000   74.7100
   74.7200   74.7300   74.7400   74.7500   74.7600   74.7700   74.7800   74.7900
   74.8000   74.8100   74.8200   74.8300   74.8400   74.8500   74.8600   74.8700
   74.8800   74.8900   74.9000   74.9100   74.9200   74.9300   74.9400   74.9500
   74.9600   74.9700   74.9800   74.9900   75.0000   75.0100   75.0200   75.0300
   75.0400   75.0500   75.0600   75.0700   75.0800   75.0900   75.1000   75.1100
   75.1200   75.1300   75.1400   75.1500   75.1600   75.1700   75.1800   75.1900
   75.2000   75.2100   75.2200   75.2300   75.2400   75.2500   75.2600   75.2700
   75.2800   75.2900   75.3000   75.3100   75.3200   75.3300   75.3400   75.3500
   75.3600   75.3700   75.3800   75.3900   75.4000   75.4100   75.4200   75.4300
   75.4400   75.4500   75.4600   75.4700   75.4800   75.4900   75.5000   75.5100
   75.5200   75.5300   75.5400   75.5500   75.5600   75.5700   75.5800   75.5900
   75.6000   75.6100   75.6200   75.6300   75.6400   75.6500   75.6600   75.6700
   75.6800   75.6900   75.7000   75.7100   75.7200   75.7300   75.7400   75.7500
   75.7600   75.7700   75.7800   75.7900   75.8000   75.8100   75.8200   75.8300
   75.8400   75.8500   75.8600   75.8700   75.8800   75.8900   75.9000   75.9100
   75.9200   75.9300   75.9400   75.9500   75.9600   75.9700   75.9800   75.9900
   76.0000   76.0100   76.0200   76.0300   76.0400   76.0500   76.0600   76.0700
   76.0800   76.0900   76.1000   76.1100   76.1200   76.1300   76.1400   76.1500
   76.1600   76.1700   76.1800   76.1900   76.2000   76.2100   76.2200   76.2300
   76.2400   76.2500   76.2600   76.2700   76.2800   76.2900   76.3000   76.3100
   76.3200   76.3300   76.3400   76.3500   76.3600   76.3700   76.3800   76.3900
   76.4000   76.4100   76.4200   76.4300   76.4400   76.4500   76.4600   76.4700
   76.4800   76.4900   76.5000   76.5100   76.5200   76.5300   76.5400   76.5500
   76.5600   76.5700   76.5800   76.5900   76.6000   76.6100   76.6200   76.6300
   76.6400   76.6500   76.6600   76.6700   76.6800   76.6900   76.7000   76.7100
   76.7200   76.7300   76.7400   76.7500   76.7600   76.7700   76.7800   76.7900
   76.8000   76.8100   76.8200   76.8300   76.8400   76.8500   76.8600   76.8700
   76.8800   76.8900   76.9000   76.9100   76.9200   76.9300   76.9400   76.9500
   76.9600   76.9700   76.9800   76.9900   77.0000   77.0100   77.0200   77.0300
   77.0400   77.0500   77.0600   77.0700   77.0800   77.0900   77.1000   77.1100
   77.1200   77.1300   77.1400   77.1500   77.1600   77.1700   77.1800   77.1900
   77.2000   77.2100   77.2200   77.2300   77.2400   77.2500   77.2600   77.2700
   77.2800   77.2900   77.3000   77.3100   77.3200   77.3300   77.3400   77.3500
   77.3600   77.3700   77.3800   77.3900   77.4000   77.4100   77.4200   77.4300
   77.4400   77.4500   77.4600   77.4700   77.4800   77.4900   77.5000   77.5100
   77.5200   77.5300   77.5400   77.5500   77.5600   77.5700   77.5800   77.5900
   77.6000   77.6100   77.6200   77.6300   77.6400   77.6500   77.6600   77.6700
   77.6800   77.6900   77.7000   77.7100   77.7200   77.7300   77.7400   77.7500
   77.7600   77.7700   77.7800   77.7900   77.8000   77.8100   77.8200   77.8300
   77.8400   77.8500   77.8600   77.8700   77.8800   77.8900   77.9000   77.9100
   77.9200   77.9300   77.9400   77.9500   77.9600   77.9700   77.9800   77.9900
   78.0000   78.0100   78.0200   78.0300   78.0400   78.0500   78.0600   78.0700
   78.0800   78.0900   78.1000   78.1100   78.1200   78.1300   78.1400   78.1500
   78.1600   78.1700   78.1800   78.1900   78.2000   78.2100   78.2200   78.2300
   78.2400   78.2500   78.2600   78.2700   78.2800   78.2900   78.3000   78.3100
   78.3200   78.3300   78.3400   78.3500   78.3600   78.3700   78.3800   78.3900
   78.4000   78.4100   78.4200   78.4300   78.4400   78.4500   78.4600   78.4700
   78.4800   78.4900   78.5000   78.5100   78.5200   78.5300   78.5400   78.5500
   78.5600   78.5700   78.5800   78.5900   78.6000   78.6100   78.6200   78.6300
   78.6400   78.6500   78.6600   78.6700   78.6800   78.6900   78.7000   78.7100
   78.7200   78.7300   78.7400   78.7500   78.7600   78.7700   78.7800   78.7900
   78.8000   78.8100   78.8200   78.8300   78.8400   78.8500   78.8600   78.8700
   78.8800   78.8900   78.9000   78.9100   78.9200   78.9300   78.9400   78.9500
   78.9600   78.9700   78.9800   78.9900   79.0000   79.0100   79.0200   79.0300
   79.0400   79.0500   79.0600   79.0700   79.0800   79.0900   79.1000   79.1100
   79.1200   79.1300   79.1400   79.1500   79.1600   79.1700   79.1800   79.1900
   79.2000   79.2100   79.2200   79.2300   79.2400   79.2500   79.2600   79.2700
   79.2800   79.2900   79.3000   79.3100   79.3200   79.3300   79.3400   79.3500
   79.3600   79.3700   79.3800   79.3900   79.4000   79.4100   79.4200   79.4300
   79.4400   79.4500   79.4600   79.4700   79.4800   79.4900   79.5000   79.5100
   79.5200   79.5300   79.5400   79.5500   79.5600   79.5700   79.5800   79.5900
   79.6000   79.6100   79.6200   79.6300   79.6400   79.6500   79.6600   79.6700
   79.6800   79.6900   79.7000   79.7100   79.7200   79.7300   79.7400   79.7500
   79.7600   79.7700   79.7800   79.7900   79.8000   79.8100   79.8200   79.8300
   79.8400   79.8500   79.8600   79.8700   79.8800   79.8900   79.9000   79.9100
   79.9200   79.9300   79.9400   79.9500   79.9600   79.9700   79.9800   79.9900
   80.0000   80.0100   80.0200   80.0300   80.0400   80.0500   80.0600   80.0700
   80.0800   80.0900   80.1000   80.1100   80.1200   80.1300   80.1400   80.1500
   80.1600   80.1700   80.1800   80.1900   80.2000   80.2100   80.2200   80.2300
   80.2400   80.2500   80.2600   80.2700   80.2800   80.2900   80.3000   80.3100
   80.3200   80.3300   80.3400   80.3500   80.3600   80.3700   80.3800   80.3900
   80.4000   80.4100   80.4200   80.4300   80.4400   80.4500   80.4600   80.4700
   80.4800   80.4900   80.5000   80.5100   80.5200   80.5300   80.5400   80.5500
   80.5600   80.5700   80.5800   80.5900   80.6000   80.6100   80.6200   80.6300
   80.6400   80.6500   80.6600   80.6700   80.6800   80.6900   80.7000   80.7100
   80.7200   80.7300   80.7400   80.7500   80.7600   80.7700   80.7800   80.7900
   80.8000   80.8100   80.8200   80.8300   80.8400   80.8500   80.8600   80.8700
   80.8800   80.8900   80.9000   80.9100   80.9200   80.9300   80.9400   80.9500
   80.9600   80.9700   80.9800   80.9900   81.0000   81.0100   81.0200   81.0300
   81.0400   81.0500   81.0600   81.0700   81.0800   81.0900   81.1000   81.1100
   81.1200   81.1300   81.1400   81.1500   81.1600   81.1700   81.1800   81.1900
   81.2000   81.2100   81.2200   81.2300   81.2400   81.2500   81.2600   81.2700
   81.2800   81.2900   81.3000   81.3100   81.3200   81.3300   81.3400   81.3500
   81.3600   81.3700   81.3800   81.3900   81.4000   81.4100   81.4200   81.4300
   81.4400   81.4500   81.4600   81.4700   81.4800   81.4900   81.5000   81.5100
   81.5200   81.5300   81.5400   81.5500   81.5600   81.5700   81.5800   81.5900
   81.6000   81.6100   81.6200   81.6300   81.6400   81.6500   81.6600   81.6700
   81.6800   81.6900   81.7000   81.7100   81.7200   81.7300   81.7400   81.7500
   81.7600   81.7700   81.7800   81.7900   81.8000   81.8100   81.8200   81.8300
   81.8400   81.8500   81.8600   81.8700   81.8800   81.8900   81.9000   81.9100
   81.9200   81.9300   81.9400   81.9500   81.9600   81.9700   81.9800   81.9900
   82.0000   82.0100   82.0200   82.0300   82.0400   82.0500   82.0600   82.0700
   82.0800   82.0900   82.1000   82.1100   82.1200   82.1300   82.1400   82.1500
   82.1600   82.1700   82.1800   82.1900   82.2000   82.2100   82.2200   82.2300
   82.2400   82.2500   82.2600   82.2700   82.2800   82.2900   82.3000   82.3100
   82.3200   82.3300   82.3400   82.3500   82.3600   82.3700   82.3800   82.3900
   82.4000   82.4100   82.4200   82.4300   82.4400   82.4500   82.4600   82.4700
   82.4800   82.4900   82.5000   82.5100   82.5200   82.5300   82.5400   82.5500
   82.5600   82.5700   82.5800   82.5900   82.6000   82.6100   82.6200   82.6300
   82.6400   82.6500   82.6600   82.6700   82.6800   82.6900   82.7000   82.7100
   82.7200   82.7300   82.7400   82.7500   82.7600   82.7700   82.7800   82.7900
   82.8000   82.8100   82.8200   82.8300   82.8400   82.8500   82.8600   82.8700
   82.8800   82.8900   82.9000   82.9100   82.9200   82.9300   82.9400   82.9500
   82.9600   82.9700   82.9800   82.9900   83.0000   83.0100   83.0200   83.0300
   83.0400   83.0500   83.0600   83.0700   83.0800   83.0900   83.1000   83.1100
   83.1200   83.1300   83.1400   83.1500   83.1600   83.1700   83.1800   83.1900
   83.2000   83.2100   83.2200   83.2300   83.2400   83.2500   83.2600   83.2700
   83.2800   83.2900   83.3000   83.3100   83.3200   83.3300   83.3400   83.3500
   83.3600   83.3700   83.3800   83.3900   83.4000   83.4100   83.4200   83.4300
   83.4400   83.4500   83.4600   83.4700   83.4800   83.4900   83.5000   83.5100
   83.5200   83.5300   83.5400   83.5500   83.5600   83.5700   83.5800   83.5900
   83.6000   83.6100   83.6200   83.6300   83.6400   83.6500   83.6600   83.6700
   83.6800   83.6900   83.7000   83.7100   83.7200   83.7300   83.7400   83.7500
   83.7600   83.7700   83.7800   83.7900   83.8000   83.8100   83.8200   83.8300
   83.8400   83.8500   83.8600   83.8700   83.8800   83.8900   83.9000   83.9100
   83.9200   83.9300   83.9400   83.9500   83.9600   83.9700   83.9800   83.9900
   84.0000   84.0100   84.0200   84.0300   84.0400   84.0500   84.0600   84.0700
   84.0800   84.0900   84.1000   84.1100   84.1200   84.1300   84.1400   84.1500
   84.1600   84.1700   84.1800   84.1900   84.2000   84.2100   84.2200   84.2300
   84.2400   84.2500   84.2600   84.2700   84.2800   84.2900   84.3000   84.3100
   84.3200   84.3300   84.3400   84.3500   84.3600   84.3700   84.3800   84.3900
   84.4000   84.4100   84.4200   84.4300   84.4400   84.4500   84.4600   84.4700
   84.4800   84.4900   84.5000   84.5100   84.5200   84.5300   84.5400   84.5500
   84.5600   84.5700   84.5800   84.5900   84.6000   84.6100   84.6200   84.6300
   84.6400   84.6500   84.6600   84.6700   84.6800   84.6900   84.7000   84.7100
   84.7200   84.7300   84.7400   84.7500   84.7600   84.7700   84.7800   84.7900
   84.8000   84.8100   84.8200   84.8300   84.8400   84.8500   84.8600   84.8700
   84.8800   84.8900   84.9000   84.9100   84.9200   84.9300   84.9400   84.9500
   84.9600   84.9700   84.9800   84.9900   85.0000   85.0100   85.0200   85.0300
   85.0400   85.0500   85.0600   85.0700   85.0800   85.0900   85.1000   85.1100
   85.1200   85.1300   85.1400   85.1500   85.1600   85.1700   85.1800   85.1900
   85.2000   85.2100   85.2200   85.2300   85.2400   85.2500   85.2600   85.2700
   85.2800   85.2900   85.3000   85.3100   85.3200   85.3300   85.3400   85.3500
   85.3600   85.3700   85.3800   85.3900   85.4000   85.4100   85.4200   85.4300
   85.4400   85.4500   85.4600   85.4700   85.4800   85.4900   85.5000   85.5100
   85.5200   85.5300   85.5400   85.5500   85.5600   85.5700   85.5800   85.5900
   85.6000   85.6100   85.6200   85.6300   85.6400   85.6500   85.6600   85.6700
   85.6800   85.6900   85.7000   85.7100   85.7200   85.7300   85.7400   85.7500
   85.7600   85.7700   85.7800   85.7900   85.8000   85.8100   85.8200   85.8300
   85.8400   85.8500   85.8600   85.8700   85.8800   85.8900   85.9000   85.9100
   85.9200   85.9300   85.9400   85.9500   85.9600   85.9700   85.9800   85.9900
   86.0000   86.0100   86.0200   86.0300   86.0400   86.0500   86.0600   86.0700
   86.0800   86.0900   86.1000   86.1100   86.1200   86.1300   86.1400   86.1500
   86.1600   86.1700   86.1800   86.1900   86.2000   86.2100   86.2200   86.2300
   86.2400   86.2500   86.2600   86.2700   86.2800   86.2900   86.3000   86.3100
   86.3200   86.3300   86.3400   86.3500   86.3600   86.3700   86.3800   86.3900
   86.4000   86.4100   86.4200   86.4300   86.4400   86.4500   86.4600   86.4700
   86.4800   86.4900   86.5000   86.5100   86.5200   86.5300   86.5400   86.5500
   86.5600   86.5700   86.5800   86.5900   86.6000   86.6100   86.6200   86.6300
   86.6400   86.6500   86.6600   86.6700   86.6800   86.6900   86.7000   86.7100
   86.7200   86.7300   86.7400   86.7500   86.7600   86.7700   86.7800   86.7900
   86.8000   86.8100   86.8200   86.8300   86.8400   86.8500   86.8600   86.8700
   86.8800   86.8900   86.9000   86.9100   86.9200   86.9300   86.9400   86.9500
   86.9600   86.9700   86.9800   86.9900   87.0000   87.0100   87.0200   87.0300
   87.0400   87.0500   87.0600   87.0700   87.0800   87.0900   87.1000   87.1100
   87.1200   87.1300   87.1400   87.1500   87.1600   87.1700   87.1800   87.1900
   87.2000   87.2100   87.2200   87.2300   87.2400   87.2500   87.2600   87.2700
   87.2800   87.2900   87.3000   87.3100   87.3200   87.3300   87.3400   87.3500
   87.3600   87.3700   87.3800   87.3900   87.4000   87.4100   87.4200   87.4300
   87.4400   87.4500   87.4600   87.4700   87.4800   87.4900   87.5000   87.5100
   87.5200   87.5300   87.5400   87.5500   87.5600   87.5700   87.5800   87.5900
   87.6000   87.6100   87.6200   87.6300   87.6400   87.6500   87.6600   87.6700
   87.6800   87.6900   87.7000   87.7100   87.7200   87.7300   87.7400   87.7500
   87.7600   87.7700   87.7800   87.7900   87.8000   87.8100   87.8200   87.8300
   87.8400   87.8500   87.8600   87.8700   87.8800   87.8900   87.9000   87.9100
   87.9200   87.9300   87.9400   87.9500   87.9600   87.9700   87.9800   87.9900
   88.0000   88.0100   88.0200   88.0300   88.0400   88.0500   88.0600   88.0700
   88.0800   88.0900   88.1000   88.1100   88.1200   88.1300   88.1400   88.1500
   88.1600   88.1700   88.1800   88.1900   88.2000   88.2100   88.2200   88.2300
   88.2400   88.2500   88.2600   88.2700   88.2800   88.2900   88.3000   88.3100
   88.3200   88.3300   88.3400   88.3500   88.3600   88.3700   88.3800   88.3900
   88.4000   88.4100   88.4200   88.4300   88.4400   88.4500   88.4600   88.4700
   88.4800   88.4900   88.5000   88.5100   88.5200   88.5300   88.5400   88.5500
   88.5600   88.5700   88.5800   88.5900   88.6000   88.6100   88.6200   88.6300
   88.6400   88.6500   88.6600   88.6700   88.6800   88.6900   88.7000   88.7100
   88.7200   88.7300   88.7400   88.7500   88.7600   88.7700   88.7800   88.7900
   88.8000   88.8100   88.8200   88.8300   88.8400   88.8500   88.8600   88.8700
   88.8800   88.8900   88.9000   88.9100   88.9200   88.9300   88.9400   88.9500
   88.9600   88.9700   88.9800   88.9900   89.0000   89.0100   89.0200   89.0300
   89.0400   89.0500   89.0600   89.0700   89.0800   89.0900   89.1000   89.1100
   89.1200   89.1300   89.1400   89.1500   89.1600   89.1700   89.1800   89.1900
   89.2000   89.2100   89.2200   89.2300   89.2400   89.2500   89.2600   89.2700
   89.2800   89.2900   89.3000   89.3100   89.3200   89.3300   89.3400   89.3500
   89.3600   89.3700   89.3800   89.3900   89.4000   89.4100   89.4200   89.4300
   89.4400   89.4500   89.4600   89.4700   89.4800   89.4900   89.5000   89.5100
   89.5200   89.5300   89.5400   89.5500   89.5600   89.5700   89.5800   89.5900
   89.6000   89.6100   89.6200   89.6300   89.6400   89.6500   89.6600   89.6700
   89.6800   89.6900   89.7000   89.7100   89.7200   89.7300   89.7400   89.7500
   89.7600   89.7700   89.7800   89.7900   89.8000   89.8100   89.8200   89.8300
   89.8400   89.8500   89.8600   89.8700   89.8800   89.8900   89.9000   89.9100
   89.9200   89.9300   89.9400   89.9500   89.9600   89.9700   89.9800   89.9900
   90.0000   90.0100   90.0200   90.0300   90.0400   90.0500   90.0600   90.0700
   90.0800   90.0900   90.1000   90.1100   90.1200   90.1300   90.1400   90.1500
   90.1600   90.1700   90.1800   90.1900   90.2000   90.2100   90.2200   90.2300
   90.2400   90.2500   90.2600   90.2700   90.2800   90.2900   90.3000   90.3100
   90.3200   90.3300   90.3400   90.3500   90.3600   90.3700   90.3800   90.3900
   90.4000   90.4100   90.4200   90.4300   90.4400   90.4500   90.4600   90.4700
   90.4800   90.4900   90.5000   90.5100   90.5200   90.5300   90.5400   90.5500
   90.5600   90.5700   90.5800   90.5900   90.6000   90.6100   90.6200   90.6300
   90.6400   90.6500   90.6600   90.6700   90.6800   90.6900   90.7000   90.7100
   90.7200   90.7300   90.7400   90.7500   90.7600   90.7700   90.7800   90.7900
   90.8000   90.8100   90.8200   90.8300   90.8400   90.8500   90.8600   90.8700
   90.8800   90.8900   90.9000   90.9100   90.9200   90.9300   90.9400   90.9500
   90.9600   90.9700   90.9800   90.9900   91.0000   91.0100   91.0200   91.0300
   91.0400   91.0500   91.0600   91.0700   91.0800   91.0900   91.1000   91.1100
   91.1200   91.1300   91.1400   91.1500   91.1600   91.1700   91.1800   91.1900
   91.2000   91.2100   91.2200   91.2300   91.2400   91.2500   91.2600   91.2700
   91.2800   91.2900   91.3000   91.3100   91.3200   91.3300   91.3400   91.3500
   91.3600   91.3700   91.3800   91.3900   91.4000   91.4100   91.4200   91.4300
   91.4400   91.4500   91.4600   91.4700   91.4800   91.4900   91.5000   91.5100
   91.5200   91.5300   91.5400   91.5500   91.5600   91.5700   91.5800   91.5900
   91.6000   91.6100   91.6200   91.6300   91.6400   91.6500   91.6600   91.6700
   91.6800   91.6900   91.7000   91.7100   91.7200   91.7300   91.7400   91.7500
   91.7600   91.7700   91.7800   91.7900   91.8000   91.8100   91.8200   91.8300
   91.8400   91.8500   91.8600   91.8700   91.8800   91.8900   91.9000   91.9100
   91.9200   91.9300   91.9400   91.9500   91.9600   91.9700   91.9800   91.9900
   92.0000   92.0100   92.0200   92.0300   92.0400   92.0500   92.0600   92.0700
   92.0800   92.0900   92.1000   92.1100   92.1200   92.1300   92.1400   92.1500
   92.1600   92.1700   92.1800   92.1900   92.2000   92.2100   92.2200   92.2300
   92.2400   92.2500   92.2600   92.2700   92.2800   92.2900   92.3000   92.3100
   92.3200   92.3300   92.3400   92.3500   92.3600   92.3700   92.3800   92.3900
   92.4000   92.4100   92.4200   92.4300   92.4400   92.4500   92.4600   92.4700
   92.4800   92.4900   92.5000   92.5100   92.5200   92.5300   92.5400   92.5500
   92.5600   92.5700   92.5800   92.5900   92.6000   92.6100   92.6200   92.6300
   92.6400   92.6500   92.6600   92.6700   92.6800   92.6900   92.7000   92.7100
   92.7200   92.7300   92.7400   92.7500   92.7600   92.7700   92.7800   92.7900
   92.8000   92.8100   92.8200   92.8300   92.8400   92.8500   92.8600   92.8700
   92.8800   92.8900   92.9000   92.9100   92.9200   92.9300   92.9400   92.9500
   92.9600   92.9700   92.9800   92.9900   93.0000   93.0100   93.0200   93.0300
   93.0400   93.0500   93.0600   93.0700   93.0800   93.0900   93.1000   93.1100
   93.1200   93.1300   93.1400   93.1500   93.1600   93.1700   93.1800   93.1900
   93.2000   93.2100   93.2200   93.2300   93.2400   93.2500   93.2600   93.2700
   93.2800   93.2900   93.3000   93.3100   93.3200   93.3300   93.3400   93.3500
   93.3600   93.3700   93.3800   93.3900   93.4000   93.4100   93.4200   93.4300
   93.4400   93.4500   93.4600   93.4700   93.4800   93.4900   93.5000   93.5100
   93.5200   93.5300   93.5400   93.5500   93.5600   93.5700   93.5800   93.5900
   93.6000   93.6100   93.6200   93.6300   93.6400   93.6500   93.6600   93.6700
   93.6800   93.6900   93.7000   93.7100   93.7200   93.7300   93.7400   93.7500
   93.7600   93.7700   93.7800   93.7900   93.8000   93.8100   93.8200   93.8300
   93.8400   93.8500   93.8600   93.8700   93.8800   93.8900   93.9000   93.9100
   93.9200   93.9300   93.9400   93.9500   93.9600   93.9700   93.9800   93.9900
   94.0000   94.0100   94.0200   94.0300   94.0400   94.0500   94.0600   94.0700
   94.0800   94.0900   94.1000   94.1100   94.1200   94.1300   94.1400   94.1500
   94.1600   94.1700   94.1800   94.1900   94.2000   94.2100   94.2200   94.2300
   94.2400   94.2500   94.2600   94.2700   94.2800   94.2900   94.3000   94.3100
   94.3200   94.3300   94.3400   94.3500   94.3600   94.3700   94.3800   94.3900
   94.4000   94.4100   94.4200   94.4300   94.4400   94.4500   94.4600   94.4700
   94.4800   94.4900   94.5000   94.5100   94.5200   94.5300   94.5400   94.5500
   94.5600   94.5700   94.5800   94.5900   94.6000   94.6100   94.6200   94.6300
   94.6400   94.6500   94.6600   94.6700   94.6800   94.6900   94.7000   94.7100
   94.7200   94.7300   94.7400   94.7500   94.7600   94.7700   94.7800   94.7900
   94.8000   94.8100   94.8200   94.8300   94.8400   94.8500   94.8600   94.8700
   94.8800   94.8900   94.9000   94.9100   94.9200   94.9300   94.9400   94.9500
   94.9600   94.9700   94.9800   94.9900   95.0000   95.0100   95.0200   95.0300
   95.0400   95.0500   95.0600   95.0700   95.0800   95.0900   95.1000   95.1100
   95.1200   95.1300   95.1400   95.1500   95.1600   95.1700   95.1800   95.1900
   95.2000   95.2100   95.2200   95.2300   95.2400   95.2500   95.2600   95.2700
   95.2800   95.2900   95.3000   95.3100   95.3200   95.3300   95.3400   95.3500
   95.3600   95.3700   95.3800   95.3900   95.4000   95.4100   95.4200   95.4300
   95.4400   95.4500   95.4600   95.4700   95.4800   95.4900   95.5000   95.5100
   95.5200   95.5300   95.5400   95.5500   95.5600   95.5700   95.5800   95.5900
   95.6000   95.6100   95.6200   95.6300   95.6400   95.6500   95.6600   95.6700
   95.6800   95.6900   95.7000   95.7100   95.7200   95.7300   95.7400   95.7500
   95.7600   95.7700   95.7800   95.7900   95.8000   95.8100   95.8200   95.8300
   95.8400   95.8500   95.8600   95.8700   95.8800   95.8900   95.9000   95.9100
   95.9200   95.9300   95.9400   95.9500   95.9600   95.9700   95.9800   95.9900
   96.0000   96.0100   96.0200   96.0300   96.0400   96.0500   96.0600   96.0700
   96.0800   96.0900   96.1000   96.1100   96.1200   96.1300   96.1400   96.1500
   96.1600   96.1700   96.1800   96.1900   96.2000   96.2100   96.2200   96.2300
   96.2400   96.2500   96.2600   96.2700   96.2800   96.2900   96.3000   96.3100
   96.3200   96.3300   96.3400   96.3500   96.3600   96.3700   96.3800   96.3900
   96.4000   96.4100   96.4200   96.4300   96.4400   96.4500   96.4600   96.4700
   96.4800   96.4900   96.5000   96.5100   96.5200   96.5300   96.5400   96.5500
   96.5600   96.5700   96.5800   96.5900   96.6000   96.6100   96.6200   96.6300
   96.6400   96.6500   96.6600   96.6700   96.6800   96.6900   96.7000   96.7100
   96.7200   96.7300   96.7400   96.7500   96.7600   96.7700   96.7800   96.7900
   96.8000   96.8100   96.8200   96.8300   96.8400   96.8500   96.8600   96.8700
   96.8800   96.8900   96.9000   96.9100   96.9200   96.9300   96.9400   96.9500
   96.9600   96.9700   96.9800   96.9900   97.0000   97.0100   97.0200   97.0300
   97.0400   97.0500   97.0600   97.0700   97.0800   97.0900   97.1000   97.1100
   97.1200   97.1300   97.1400   97.1500   97.1600   97.1700   97.1800   97.1900
   97.2000   97.2100   97.2200   97.2300   97.2400   97.2500   97.2600   97.2700
   97.2800   97.2900   97.3000   97.3100   97.3200   97.3300   97.3400   97.3500
   97.3600   97.3700   97.3800   97.3900   97.4000   97.4100   97.4200   97.4300
   97.4400   97.4500   97.4600   97.4700   97.4800   97.4900   97.5000   97.5100
   97.5200   97.5300   97.5400   97.5500   97.5600   97.5700   97.5800   97.5900
   97.6000   97.6100   97.6200   97.6300   97.6400   97.6500   97.6600   97.6700
   97.6800   97.6900   97.7000   97.7100   97.7200   97.7300   97.7400   97.7500
   97.7600   97.7700   97.7800   97.7900   97.8000   97.8100   97.8200   97.8300
   97.8400   97.8500   97.8600   97.8700   97.8800   97.8900   97.9000   97.9100
   97.9200   97.9300   97.9400   97.9500   97.9600   97.9700   97.9800   97.9900
   98.0000   98.0100   98.0200   98.0300   98.0400   98.0500   98.0600   98.0700
   98.0800   98.0900   98.1000   98.1100   98.1200   98.1300   98.1400   98.1500
   98.1600   98.1700   98.1800   98.1900   98.2000   98.2100   98.2200   98.2300
   98.2400   98.2500   98.2600   98.2700   98.2800   98.2900   98.3000   98.3100
   98.3200   98.3300   98.3400   98.3500   98.3600   98.3700   98.3800   98.3900
   98.4000   98.4100   98.4200   98.4300   98.4400   98.4500   98.4600   98.4700
   98.4800   98.4900   98.5000   98.5100   98.5200   98.5300   98.5400   98.5500
   98.5600   98.5700   98.5800   98.5900   98.6000   98.6100   98.6200   98.6300
   98.6400   98.6500   98.6600   98.6700   98.6800   98.6900   98.7000   98.7100
   98.7200   98.7300   98.7400   98.7500   98.7600   98.7700   98.7800   98.7900
   98.8000   98.8100   98.8200   98.8300   98.8400   98.8500   98.8600   98.8700
   98.8800   98.8900   98.9000   98.9100   98.9200   98.9300   98.9400   98.9500
   98.9600   98.9700   98.9800   98.9900   99.0000   99.0100   99.0200   99.0300
   99.0400   99.0500   99.0600   99.0700   99.0800   99.0900   99.1000   99.1100
   99.1200   99.1300   99.1400   99.1500   99.1600   99.1700   99.1800   99.1900
   99.2000   99.2100   99.2200   99.2300   99.2400   99.2500   99.2600   99.2700
   99.2800   99.2900   99.3000   99.3100   99.3200   99.3300   99.3400   99.3500
   99.3600   99.3700   99.3800   99.3900   99.4000   99.4100   99.4200   99.4300
   99.4400   99.4500   99.4600   99.4700   99.4800   99.4900   99.5000   99.5100
   99.5200   99.5300   99.5400   99.5500   99.5600   99.5700   99.5800   99.5900
   99.6000   99.6100   99.6200   99.6300   99.6400   99.6500   99.6600   99.6700
   99.6800   99.6900   99.7000   99.7100   99.7200   99.7300   99.7400   99.7500
   99.7600   99.7700   99.7800   99.7900   99.8000   99.8100   99.8200   99.8300
   99.8400   99.8500   99.8600   99.8700   99.8800   99.8900   99.9000   99.9100
   99.9200   99.9300   99.9400   99.9500   99.9600   99.9700   99.9800   99.9900
  100.0000  100.0100  100.0200  100.0300  100.0400  100.0500  100.0600  100.0700
  100.0800  100.0900  100.1000  100.1100  100.1200  100.1300  100.1400  100.1500
  100.1600  100.1700  100.1800  100.1900  100.2000  100.2100  100.2200  100.2300
  100.2400  100.2500  100.2600  100.2700  100.2800  100.2900  100.3000  100.3100
  100.3200  100.3300  100.3400  100.3500  100.3600  100.3700  100.3800  100.3900
  100.4000  100.4100  100.4200  100.4300  100.4400  100.4500  100.4600  100.4700
  100.4800  100.4900  100.5000  100.5100  100.5200  100.5300  100.5400  100.5500
  100.5600  100.5700  100.5800  100.5900  100.6000  100.6100  100.6200  100.6300
  100.6400  100.6500  100.6600  100.6700  100.6800  100.6900  100.7000  100.7100
  100.7200  100.7300  100.7400  100.7500  100.7600  100.7700  100.7800  100.7900
  100.8000  100.8100  100.8200  100.8300  100.8400  100.8500  100.8600  100.8700
  100.8800  100.8900  100.9000  100.9100  100.9200  100.9300  100.9400  100.9500
  100.9600  100.9700  100.9800  100.9900  101.0000  101.0100  101.0200  101.0300
  101.0400  101.0500  101.0600  101.0700  101.0800  101.0900  101.1000  101.1100
  101.1200  101.1300  101.1400  101.1500  101.1600  101.1700  101.1800  101.1900
  101.2000  101.2100  101.2200  101.2300  101.2400  101.2500  101.2600  101.2700
  101.2800  101.2900  101.3000  101.3100  101.3200  101.3300  101.3400  101.3500
  101.3600  101.3700  101.3800  101.3900  101.4000  101.4100  101.4200  101.4300
  101.4400  101.4500  101.4600  101.4700  101.4800  101.4900  101.5000  101.5100
  101.5200  101.5300  101.5400  101.5500  101.5600  101.5700  101.5800  101.5900
  101.6000  101.6100  101.6200  101.6300  101.6400  101.6500  101.6600  101.6700
  101.6800  101.6900  101.7000  101.7100  101.7200  101.7300  101.7400  101.7500
  101.7600  101.7700  101.7800  101.7900  101.8000  101.8100  101.8200  101.8300
  101.8400  101.8500  101.8600  101.8700  101.8800  101.8900  101.9000  101.9100
  101.9200  101.9300  101.9400  101.9500  101.9600  101.9700  101.9800  101.9900
  102.0000  102.0100  102.0200  102.0300  102.0400  102.0500  102.0600  102.0700
  102.0800  102.0900  102.1000  102.1100  102.1200  102.1300  102.1400  102.1500
  102.1600  102.1700  102.1800  102.1900  102.2000  102.2100  102.2200  102.2300
  102.2400  102.2500  102.2600  102.2700  102.2800  102.2900  102.3000  102.3100
  102.3200  102.3300  102.3400  102.3500  102.3600  102.3700  102.3800  102.3900
  102.4000  102.4100  102.4200  102.4300  102.4400  102.4500  102.4600  102.4700
  102.4800  102.4900  102.5000  102.5100  102.5200  102.5300  102.5400  102.5500
  102.5600  102.5700  102.5800  102.5900  102.6000  102.6100  102.6200  102.6300
  102.6400  102.6500  102.6600  102.6700  102.6800  102.6900  102.7000  102.7100
  102.7200  102.7300  102.7400  102.7500  102.7600  102.7700  102.7800  102.7900
  102.8000  102.8100  102.8200  102.8300  102.8400  102.8500  102.8600  102.8700
  102.8800  102.8900  102.9000  102.9100  102.9200  102.9300  102.9400  102.9500
  102.9600  102.9700  102.9800  102.9900  103.0000  103.0100  103.0200  103.0300
  103.0400  103.0500  103.0600  103.0700  103.0800  103.0900  103.1000  103.1100
  103.1200  103.1300  103.1400  103.1500  103.1600  103.1700  103.1800  103.1900
  103.2000  103.2100  103.2200  103.2300  103.2400  103.2500  103.2600  103.2700
  103.2800  103.2900  103.3000  103.3100  103.3200  103.3300  103.3400  103.3500
  103.3600  103.3700  103.3800  103.3900  103.4000  103.4100  103.4200  103.4300
  103.4400  103.4500  103.4600  103.4700  103.4800  103.4900  103.5000  103.5100
  103.5200  103.5300  103.5400  103.5500  103.5600  103.5700  103.5800  103.5900
  103.6000  103.6100  103.6200  103.6300  103.6400  103.6500  103.6600  103.6700
  103.6800  103.6900  103.7000  103.7100  103.7200  103.7300  103.7400  103.7500
  103.7600  103.7700  103.7800  103.7900  103.8000  103.8100  103.8200  103.8300
  103.8400  103.8500  103.8600  103.8700  103.8800  103.8900  103.9000  103.9100
  103.9200  103.9300  103.9400  103.9500  103.9600  103.9700  103.9800  103.9900
  104.0000  104.0100  104.0200  104.0300  104.0400  104.0500  104.0600  104.0700
  104.0800  104.0900  104.1000  104.1100  104.1200  104.1300  104.1400  104.1500
  104.1600  104.1700  104.1800  104.1900  104.2000  104.2100  104.2200  104.2300
  104.2400  104.2500  104.2600  104.2700  104.2800  104.2900  104.3000  104.3100
  104.3200  104.3300  104.3400  104.3500  104.3600  104.3700  104.3800  104.3900
  104.4000  104.4100  104.4200  104.4300  104.4400  104.4500  104.4600  104.4700
  104.4800  104.4900  104.5000  104.5100  104.5200  104.5300  104.5400  104.5500
  104.5600  104.5700  104.5800  104.5900  104.6000  104.6100  104.6200  104.6300
  104.6400  104.6500  104.6600  104.6700  104.6800  104.6900  104.7000  104.7100
  104.7200  104.7300  104.7400  104.7500  104.7600  104.7700  104.7800  104.7900
  104.8000  104.8100  104.8200  104.8300  104.8400  104.8500  104.8600  104.8700
  104.8800  104.8900  104.9000  104.9100  104.9200  104.9300  104.9400  104.9500
  104.9600  104.9700  104.9800  104.9900  105.0000  105.0100  105.0200  105.0300
  105.0400  105.0500  105.0600  105.0700  105.0800  105.0900  105.1000  105.1100
  105.1200  105.1300  105.1400  105.1500  105.1600  105.1700  105.1800  105.1900
  105.2000  105.2100  105.2200  105.2300  105.2400  105.2500  105.2600  105.2700
  105.2800  105.2900  105.3000  105.3100  105.3200  105.3300  105.3400  105.3500
  105.3600  105.3700  105.3800  105.3900  105.4000  105.4100  105.4200  105.4300
  105.4400  105.4500  105.4600  105.4700  105.4800  105.4900  105.5000  105.5100
  105.5200  105.5300  105.5400  105.5500  105.5600  105.5700  105.5800  105.5900
  105.6000  105.6100  105.6200  105.6300  105.6400  105.6500  105.6600  105.6700
  105.6800  105.6900  105.7000  105.7100  105.7200  105.7300  105.7400  105.7500
  105.7600  105.7700  105.7800  105.7900  105.8000  105.8100  105.8200  105.8300
  105.8400  105.8500  105.8600  105.8700  105.8800  105.8900  105.9000  105.9100
  105.9200  105.9300  105.9400  105.9500  105.9600  105.9700  105.9800  105.9900
  106.0000  106.0100  106.0200  106.0300  106.0400  106.0500  106.0600  106.0700
  106.0800  106.0900  106.1000  106.1100  106.1200  106.1300  106.1400  106.1500
  106.1600  106.1700  106.1800  106.1900  106.2000  106.2100  106.2200  106.2300
  106.2400  106.2500  106.2600  106.2700  106.2800  106.2900  106.3000  106.3100
  106.3200  106.3300  106.3400  106.3500  106.3600  106.3700  106.3800  106.3900
  106.4000  106.4100  106.4200  106.4300  106.4400  106.4500  106.4600  106.4700
  106.4800  106.4900  106.5000  106.5100  106.5200  106.5300  106.5400  106.5500
  106.5600  106.5700  106.5800  106.5900  106.6000  106.6100  106.6200  106.6300
  106.6400  106.6500  106.6600  106.6700  106.6800  106.6900  106.7000  106.7100
  106.7200  106.7300  106.7400  106.7500  106.7600  106.7700  106.7800  106.7900
  106.8000  106.8100  106.8200  106.8300  106.8400  106.8500  106.8600  106.8700
  106.8800  106.8900  106.9000  106.9100  106.9200  106.9300  106.9400  106.9500
  106.9600  106.9700  106.9800  106.9900  107.0000  107.0100  107.0200  107.0300
  107.0400  107.0500  107.0600  107.0700  107.0800  107.0900  107.1000  107.1100
  107.1200  107.1300  107.1400  107.1500  107.1600  107.1700  107.1800  107.1900
  107.2000  107.2100  107.2200  107.2300  107.2400  107.2500  107.2600  107.2700
  107.2800  107.2900  107.3000  107.3100  107.3200  107.3300  107.3400  107.3500
  107.3600  107.3700  107.3800  107.3900  107.4000  107.4100  107.4200  107.4300
  107.4400  107.4500  107.4600  107.4700  107.4800  107.4900  107.5000  107.5100
  107.5200  107.5300  107.5400  107.5500  107.5600  107.5700  107.5800  107.5900
  107.6000  107.6100  107.6200  107.6300  107.6400  107.6500  107.6600  107.6700
  107.6800  107.6900  107.7000  107.7100  107.7200  107.7300  107.7400  107.7500
  107.7600  107.7700  107.7800  107.7900  107.8000  107.8100  107.8200  107.8300
  107.8400  107.8500  107.8600  107.8700  107.8800  107.8900  107.9000  107.9100
  107.9200  107.9300  107.9400  107.9500  107.9600  107.9700  107.9800  107.9900
  108.0000  108.0100  108.0200  108.0300  108.0400  108.0500  108.0600  108.0700
  108.0800  108.0900  108.1000  108.1100  108.1200  108.1300  108.1400  108.1500
  108.1600  108.1700  108.1800  108.1900  108.2000  108.2100  108.2200  108.2300
  108.2400  108.2500  108.2600  108.2700  108.2800  108.2900  108.3000  108.3100
  108.3200  108.3300  108.3400  108.3500  108.3600  108.3700  108.3800  108.3900
  108.4000  108.4100  108.4200  108.4300  108.4400  108.4500  108.4600  108.4700
  108.4800  108.4900  108.5000  108.5100  108.5200  108.5300  108.5400  108.5500
  108.5600  108.5700  108.5800  108.5900  108.6000  108.6100  108.6200  108.6300
  108.6400  108.6500  108.6600  108.6700  108.6800  108.6900  108.7000  108.7100
  108.7200  108.7300  108.7400  108.7500  108.7600  108.7700  108.7800  108.7900
  108.8000  108.8100  108.8200  108.8300  108.8400  108.8500  108.8600  108.8700
  108.8800  108.8900  108.9000  108.9100  108.9200  108.9300  108.9400  108.9500
  108.9600  108.9700  108.9800  108.9900  109.0000  109.0100  109.0200  109.0300
  109.0400  109.0500  109.0600  109.0700  109.0800  109.0900  109.1000  109.1100
  109.1200  109.1300  109.1400  109.1500  109.1600  109.1700  109.1800  109.1900
  109.2000  109.2100  109.2200  109.2300  109.2400  109.2500  109.2600  109.2700
  109.2800  109.2900  109.3000  109.3100  109.3200  109.3300  109.3400  109.3500
  109.3600  109.3700  109.3800  109.3900  109.4000  109.4100  109.4200  109.4300
  109.4400  109.4500  109.4600  109.4700  109.4800  109.4900  109.5000  109.5100
  109.5200  109.5300  109.5400  109.5500  109.5600  109.5700  109.5800  109.5900
  109.6000  109.6100  109.6200  109.6300  109.6400  109.6500  109.6600  109.6700
  109.6800  109.6900  109.7000  109.7100  109.7200  109.7300  109.7400  109.7500
  109.7600  109.7700  109.7800  109.7900  109.8000  109.8100  109.8200  109.8300
  109.8400  109.8500  109.8600  109.8700  109.8800  109.8900  109.9000  109.9100
  109.9200  109.9300  109.9400  109.9500  109.9600  109.9700  109.9800  109.9900
  110.0000  110.0100  110.0200  110.0300  110.0400  110.0500  110.0600  110.0700
  110.0800  110.0900  110.1000  110.1100  110.1200  110.1300  110.1400  110.1500
  110.1600  110.1700  110.1800  110.1900  110.2000  110.2100  110.2200  110.2300
  110.2400  110.2500  110.2600  110.2700  110.2800  110.2900  110.3000  110.3100
  110.3200  110.3300  110.3400  110.3500  110.3600  110.3700  110.3800  110.3900
  110.4000  110.4100  110.4200  110.4300  110.4400  110.4500  110.4600  110.4700
  110.4800  110.4900  110.5000  110.5100  110.5200  110.5300  110.5400  110.5500
  110.5600  110.5700  110.5800  110.5900  110.6000  110.6100  110.6200  110.6300
  110.6400  110.6500  110.6600  110.6700  110.6800  110.6900  110.7000  110.7100
  110.7200  110.7300  110.7400  110.7500  110.7600  110.7700  110.7800  110.7900
  110.8000  110.8100  110.8200  110.8300  110.8400  110.8500  110.8600  110.8700
  110.8800  110.8900  110.9000  110.9100  110.9200  110.9300  110.9400  110.9500
  110.9600  110.9700  110.9800  110.9900  111.0000  111.0100  111.0200  111.0300
  111.0400  111.0500  111.0600  111.0700  111.0800  111.0900  111.1000  111.1100
  111.1200  111.1300  111.1400  111.1500  111.1600  111.1700  111.1800  111.1900
  111.2000  111.2100  111.2200  111.2300  111.2400  111.2500  111.2600  111.2700
  111.2800  111.2900  111.3000  111.3100  111.3200  111.3300  111.3400  111.3500
  111.3600  111.3700  111.3800  111.3900  111.4000  111.4100  111.4200  111.4300
  111.4400  111.4500  111.4600  111.4700  111.4800  111.4900  111.5000  111.5100
  111.5200  111.5300  111.5400  111.5500  111.5600  111.5700  111.5800  111.5900
  111.6000  111.6100  111.6200  111.6300  111.6400  111.6500  111.6600  111.6700
  111.6800  111.6900  111.7000  111.7100  111.7200  111.7300  111.7400  111.7500
  111.7600  111.7700  111.7800  111.7900  111.8000  111.8100  111.8200  111.8300
  111.8400  111.8500  111.8600  111.8700  111.8800  111.8900  111.9000  111.9100
  111.9200  111.9300  111.9400  111.9500  111.9600  111.9700  111.9800  111.9900
  112.0000  112.0100  112.0200  112.0300  112.0400  112.0500  112.0600  112.0700
  112.0800  112.0900  112.1000  112.1100  112.1200  112.1300  112.1400  112.1500
  112.1600  112.1700  112.1800  112.1900  112.2000  112.2100  112.2200  112.2300
  112.2400  112.2500  112.2600  112.2700  112.2800  112.2900  112.3000  112.3100
  112.3200  112.3300  112.3400  112.3500  112.3600  112.3700  112.3800  112.3900
  112.4000  112.4100  112.4200  112.4300  112.4400  112.4500  112.4600  112.4700
  112.4800  112.4900  112.5000  112.5100  112.5200  112.5300  112.5400  112.5500
  112.5600  112.5700  112.5800  112.5900  112.6000  112.6100  112.6200  112.6300
  112.6400  112.6500  112.6600  112.6700  112.6800  112.6900  112.7000  112.7100
  112.7200  112.7300  112.7400  112.7500  112.7600  112.7700  112.7800  112.7900
  112.8000  112.8100  112.8200  112.8300  112.8400  112.8500  112.8600  112.8700
  112.8800  112.8900  112.9000  112.9100  112.9200  112.9300  112.9400  112.9500
  112.9600  112.9700  112.9800  112.9900  113.0000  113.0100  113.0200  113.0300
  113.0400  113.0500  113.0600  113.0700  113.0800  113.0900  113.1000  113.1100
  113.1200  113.1300  113.1400  113.1500  113.1600  113.1700  113.1800  113.1900
  113.2000  113.2100  113.2200  113.2300  113.2400  113.2500  113.2600  113.2700
  113.2800  113.2900  113.3000  113.3100  113.3200  113.3300  113.3400  113.3500
  113.3600  113.3700  113.3800  113.3900  113.4000  113.4100  113.4200  113.4300
  113.4400  113.4500  113.4600  113.4700  113.4800  113.4900  113.5000  113.5100
  113.5200  113.5300  113.5400  113.5500  113.5600  113.5700  113.5800  113.5900
  113.6000  113.6100  113.6200  113.6300  113.6400  113.6500  113.6600  113.6700
  113.6800  113.6900  113.7000  113.7100  113.7200  113.7300  113.7400  113.7500
  113.7600  113.7700  113.7800  113.7900  113.8000  113.8100  113.8200  113.8300
  113.8400  113.8500  113.8600  113.8700  113.8800  113.8900  113.9000  113.9100
  113.9200  113.9300  113.9400  113.9500  113.9600  113.9700  113.9800  113.9900
  114.0000  114.0100  114.0200  114.0300  114.0400  114.0500  114.0600  114.0700
  114.0800  114.0900  114.1000  114.1100  114.1200  114.1300  114.1400  114.1500
  114.1600  114.1700  114.1800  114.1900  114.2000  114.2100  114.2200  114.2300
  114.2400  114.2500  114.2600  114.2700  114.2800  114.2900  114.3000  114.3100
  114.3200  114.3300  114.3400  114.3500  114.3600  114.3700  114.3800  114.3900
  114.4000  114.4100  114.4200  114.4300  114.4400  114.4500  114.4600  114.4700
  114.4800  114.4900  114.5000  114.5100  114.5200  114.5300  114.5400  114.5500
  114.5600  114.5700  114.5800  114.5900  114.6000  114.6100  114.6200  114.6300
  114.6400  114.6500  114.6600  114.6700  114.6800  114.6900  114.7000  114.7100
  114.7200  114.7300  114.7400  114.7500  114.7600  114.7700  114.7800  114.7900
  114.8000  114.8100  114.8200  114.8300  114.8400  114.8500  114.8600  114.8700
  114.8800  114.8900  114.9000  114.9100  114.9200  114.9300  114.9400  114.9500
  114.9600  114.9700  114.9800  114.9900  115.0000  115.0100  115.0200  115.0300
  115.0400  115.0500  115.0600  115.0700  115.0800  115.0900  115.1000  115.1100
  115.1200  115.1300  115.1400  115.1500  115.1600  115.1700  115.1800  115.1900
  115.2000  115.2100  115.2200  115.2300  115.2400  115.2500  115.2600  115.2700
  115.2800  115.2900  115.3000  115.3100  115.3200  115.3300  115.3400  115.3500
  115.3600  115.3700  115.3800  115.3900  115.4000  115.4100  115.4200  115.4300
  115.4400  115.4500  115.4600  115.4700  115.4800  115.4900  115.5000  115.5100
  115.5200  115.5300  115.5400  115.5500  115.5600  115.5700  115.5800  115.5900
  115.6000  115.6100  115.6200  115.6300  115.6400  115.6500  115.6600  115.6700
  115.6800  115.6900  115.7000  115.7100  115.7200  115.7300  115.7400  115.7500
  115.7600  115.7700  115.7800  115.7900  115.8000  115.8100  115.8200  115.8300
  115.8400  115.8500  115.8600  115.8700  115.8800  115.8900  115.9000  115.9100
  115.9200  115.9300  115.9400  115.9500  115.9600  115.9700  115.9800  115.9900
  116.0000  116.0100  116.0200  116.0300  116.0400  116.0500  116.0600  116.0700
  116.0800  116.0900  116.1000  116.1100  116.1200  116.1300  116.1400  116.1500
  116.1600  116.1700  116.1800  116.1900  116.2000  116.2100  116.2200  116.2300
  116.2400  116.2500  116.2600  116.2700  116.2800  116.2900  116.3000  116.3100
  116.3200  116.3300  116.3400  116.3500  116.3600  116.3700  116.3800  116.3900
  116.4000  116.4100  116.4200  116.4300  116.4400  116.4500  116.4600  116.4700
  116.4800  116.4900  116.5000  116.5100  116.5200  116.5300  116.5400  116.5500
  116.5600  116.5700  116.5800  116.5900  116.6000  116.6100  116.6200  116.6300
  116.6400  116.6500  116.6600  116.6700  116.6800  116.6900  116.7000  116.7100
  116.7200  116.7300  116.7400  116.7500  116.7600  116.7700  116.7800  116.7900
  116.8000  116.8100  116.8200  116.8300  116.8400  116.8500  116.8600  116.8700
  116.8800  116.8900  116.9000  116.9100  116.9200  116.9300  116.9400  116.9500
  116.9600  116.9700  116.9800  116.9900  117.0000  117.0100  117.0200  117.0300
  117.0400  117.0500  117.0600  117.0700  117.0800  117.0900  117.1000  117.1100
  117.1200  117.1300  117.1400  117.1500  117.1600  117.1700  117.1800  117.1900
  117.2000  117.2100  117.2200  117.2300  117.2400  117.2500  117.2600  117.2700
  117.2800  117.2900  117.3000  117.3100  117.3200  117.3300  117.3400  117.3500
  117.3600  117.3700  117.3800  117.3900  117.4000  117.4100  117.4200  117.4300
  117.4400  117.4500  117.4600  117.4700  117.4800  117.4900  117.5000  117.5100
  117.5200  117.5300  117.5400  117.5500  117.5600  117.5700  117.5800  117.5900
  117.6000  117.6100  117.6200  117.6300  117.6400  117.6500  117.6600  117.6700
  117.6800  117.6900  117.7000  117.7100  117.7200  117.7300  117.7400  117.7500
  117.7600  117.7700  117.7800  117.7900  117.8000  117.8100  117.8200  117.8300
  117.8400  117.8500  117.8600  117.8700  117.8800  117.8900  117.9000  117.9100
  117.9200  117.9300  117.9400  117.9500  117.9600  117.9700  117.9800  117.9900
  118.0000  118.0100  118.0200  118.0300  118.0400  118.0500  118.0600  118.0700
  118.0800  118.0900  118.1000  118.1100  118.1200  118.1300  118.1400  118.1500
  118.1600  118.1700  118.1800  118.1900  118.2000  118.2100  118.2200  118.2300
  118.2400  118.2500  118.2600  118.2700  118.2800  118.2900  118.3000  118.3100
  118.3200  118.3300  118.3400  118.3500  118.3600  118.3700  118.3800  118.3900
  118.4000  118.4100  118.4200  118.4300  118.4400  118.4500  118.4600  118.4700
  118.4800  118.4900  118.5000  118.5100  118.5200  118.5300  118.5400  118.5500
  118.5600  118.5700  118.5800  118.5900  118.6000  118.6100  118.6200  118.6300
  118.6400  118.6500  118.6600  118.6700  118.6800  118.6900  118.7000  118.7100
  118.7200  118.7300  118.7400  118.7500  118.7600  118.7700  118.7800  118.7900
  118.8000  118.8100  118.8200  118.8300  118.8400  118.8500  118.8600  118.8700
  118.8800  118.8900  118.9000  118.9100  118.9200  118.9300  118.9400  118.9500
  118.9600  118.9700  118.9800  118.9900  119.0000  119.0100  119.0200  119.0300
  119.0400  119.0500  119.0600  119.0700  119.0800  119.0900  119.1000  119.1100
  119.1200  119.1300  119.1400  119.1500  119.1600  119.1700  119.1800  119.1900
  119.2000  119.2100  119.2200  119.2300  119.2400  119.2500  119.2600  119.2700
  119.2800  119.2900  119.3000  119.3100  119.3200  119.3300  119.3400  119.3500
  119.3600  119.3700  119.3800  119.3900  119.4000  119.4100  119.4200  119.4300
  119.4400  119.4500  119.4600  119.4700  119.4800  119.4900  119.5000  119.5100
  119.5200  119.5300  119.5400  119.5500  119.5600  119.5700  119.5800  119.5900
  119.6000  119.6100  119.6200  119.6300  119.6400  119.6500  119.6600  119.6700
  119.6800  119.6900  119.7000  119.7100  119.7200  119.7300  119.7400  119.7500
  119.7600  119.7700  119.7800  119.7900  119.8000  119.8100  119.8200  119.8300
  119.8400  119.8500  119.8600  119.8700  119.8800  119.8900  119.9000  119.9100
  119.9200  119.9300  119.9400  119.9500  119.9600  119.9700  119.9800  119.9900
  120.0000
</PP_R>
   <PP_RAB type="real"  size="12001" columns="8">
    0.0100    0.0100    0.0100    0.0100    0.0100    0.0100    0.0100    0.0100
    0.0100    0.0100    0.0100    0.0100    0.0100    0.0100    0.0100    0.0100
    0.0100    0.0100    0.0100    0.0100    0.0100    0.0100    0.0100    0.0100
    0.0100    0.0100    0.0100    0.0100    0.0100    0.0100    0.0100    0.0100
    0.0100    0.0100    0.0100    0.0100    0.0100    0.0100    0.0100    0.0100
    0.0100    0.0100    0.0100    0.0100    0.0100    0.0100    0.0100    0.0100
    0.0100    0.0100    0.0100    0.0100    0.0100    0.0100    0.0100    0.0100
    0.0100    0.0100    0.0100    0.0100    0.0100    0.0100    0.0100    0.0100
    0.0100    0.0100    0.0100    0.0100    0.0100    0.0100    0.0100    0.0100
    0.0100    0.0100    0.0100    0.0100    0.0100    0.0100    0.0100    0.0100
    0.0100    0.0100    0.0100    0.0100    0.0100    0.0100    0.0100    0.0100
    0.0100    0.0100    0.0100    0.0100    0.0100    0.0100    0.0100    0.0100
    0.0100    0.0100    0.0100    0.0100    0.0100    0.0100    0.0100    0.0100
    0.0100    0.0100    0.0100    0.0100    0.0100    0.0100    0.0100    0.0100
    0.0100    0.0100    0.0100    0.0100    0.0100    0.0100    0.0100    0.0100
    0.0100    0.0100    0.0100    0.0100    0.0100    0.0100    0.0100    0.0100
    0.0100    0.0100    0.0100    0.0100    0.0100    0.0100    0.0100    0.0100
    0.0100    0.0100    0.0100    0.0100    0.0100    0.0100    0.0100    0.0100
    0.0100    0.0100    0.0100    0.0100    0.0100    0.0100    0.0100    0.0100
    0.0100    0.0100    0.0100    0.0100    0.0100    0.0100    0.0100    0.0100
    0.0100    0.0100    0.0100    0.0100    0.0100    0.0100    0.0100    0.0100
    0.0100    0.0100    0.0100    0.0100    0.0100    0.0100    0.0100    0.0100
    0.0100    0.0100    0.0100    0.0100    0.0100    0.0100    0.0100    0.0100
    0.0100    0.0100    0.0100    0.0100    0.0100    0.0100    0.0100    0.0100
    0.0100    0.0100    0.0100    0.0100    0.0100    0.0100    0.0100    0.0100
    0.0100    0.0100    0.0100    0.0100    0.0100    0.0100    0.0100    0.0100
    0.0100    0.0100    0.0100    0.0100    0.0100    0.0100    0.0100    0.0100
    0.0100    0.0100    0.0100    0.0100    0.0100    0.0100    0.0100    0.0100
    0.0100    0.0100    0.0100    0.0100    0.0100    0.0100    0.0100    0.0100
    0.0100    0.0100    0.0100    0.0100    0.0100    0.0100    0.0100    0.0100
    0.0100    0.0100    0.0100    0.0100    0.0100    0.0100    0.0100    0.0100
    0.0100    0.0100    0.0100    0.0100    0.0100    0.0100    0.0100    0.0100
    0.0100    0.0100    0.0100    0.0100    0.0100    0.0100    0.0100    0.0100
    0.0100    0.0100    0.0100    0.0100    0.0100    0.0100    0.0100    0.0100
    0.0100    0.0100    0.0100    0.0100    0.0100    0.0100    0.0100    0.0100
    0.0100    0.0100    0.0100    0.0100    0.0100    0.0100    0.0100    0.0100
    0.0100    0.0100    0.0100    0.0100    0.0100    0.0100    0.0100    0.0100
    0.0100    0.0100    0.0100    0.0100    0.0100    0.0100    0.0100    0.0100
    0.0100    0.0100    0.0100    0.0100    0.0100    0.0100    0.0100    0.0100
    0.0100    0.0100    0.0100    0.0100    0.0100    0.0100    0.0100    0.0100
    0.0100    0.0100    0.0100    0.0100    0.0100    0.0100    0.0100    0.0100
    0.0100    0.0100    0.0100    0.0100    0.0100    0.0100    0.0100    0.0100
    0.0100    0.0100    0.0100    0.0100    0.0100    0.0100    0.0100    0.0100
    0.0100    0.0100    0.0100    0.0100    0.0100    0.0100    0.0100    0.0100
    0.0100    0.0100    0.0100    0.0100    0.0100    0.0100    0.0100    0.0100
    0.0100    0.0100    0.0100    0.0100    0.0100    0.0100    0.0100    0.0100
    0.0100    0.0100    0.0100    0.0100    0.0100    0.0100    0.0100    0.0100
    0.0100    0.0100    0.0100    0.0100    0.0100    0.0100    0.0100    0.0100
    0.0100    0.0100    0.0100    0.0100    0.0100    0.0100    0.0100    0.0100
    0.0100    0.0100    0.0100    0.0100    0.0100    0.0100    0.0100    0.0100
    0.0100    0.0100    0.0100    0.0100    0.0100    0.0100    0.0100    0.0100
    0.0100    0.0100    0.0100    0.0100    0.0100    0.0100    0.0100    0.0100
    0.0100    0.0100    0.0100    0.0100    0.0100    0.0100    0.0100    0.0100
    0.0100    0.0100    0.0100    0.0100    0.0100    0.0100    0.0100    0.0100
    0.0100    0.0100    0.0100    0.0100    0.0100    0.0100    0.0100    0.0100
    0.0100    0.0100    0.0100    0.0100    0.0100    0.0100    0.0100    0.0100
    0.0100    0.0100    0.0100    0.0100    0.0100    0.0100    0.0100    0.0100
    0.0100    0.0100    0.0100    0.0100    0.0100    0.0100    0.0100    0.0100
    0.0100    0.0100    0.0100    0.0100    0.0100    0.0100    0.0100    0.0100
    0.0100    0.0100    0.0100    0.0100    0.0100    0.0100    0.0100    0.0100
    0.0100    0.0100    0.0100    0.0100    0.0100    0.0100    0.0100    0.0100
    0.0100    0.0100    0.0100    0.0100    0.0100    0.0100    0.0100    0.0100
    0.0100    0.0100    0.0100    0.0100    0.0100    0.0100    0.0100    0.0100
    0.0100    0.0100    0.0100    0.0100    0.0100    0.0100    0.0100    0.0100
    0.0100    0.0100    0.0100    0.0100    0.0100    0.0100    0.0100    0.0100
    0.0100    0.0100    0.0100    0.0100    0.0100    0.0100    0.0100    0.0100
    0.0100    0.0100    0.0100    0.0100    0.0100    0.0100    0.0100    0.0100
    0.0100    0.0100    0.0100    0.0100    0.0100    0.0100    0.0100    0.0100
    0.0100    0.0100    0.0100    0.0100    0.0100    0.0100    0.0100    0.0100
    0.0100    0.0100    0.0100    0.0100    0.0100    0.0100    0.0100    0.0100
    0.0100    0.0100    0.0100    0.0100    0.0100    0.0100    0.0100    0.0100
    0.0100    0.0100    0.0100    0.0100    0.0100    0.0100    0.0100    0.0100
    0.0100    0.0100    0.0100    0.0100    0.0100    0.0100    0.0100    0.0100
    0.0100    0.0100    0.0100    0.0100    0.0100    0.0100    0.0100    0.0100
    0.0100    0.0100    0.0100    0.0100    0.0100    0.0100    0.0100    0.0100
    0.0100    0.0100    0.0100    0.0100    0.0100    0.0100    0.0100    0.0100
    0.0100    0.0100    0.0100    0.0100    0.0100    0.0100    0.0100    0.0100
    0.0100    0.0100    0.0100    0.0100    0.0100    0.0100    0.0100    0.0100
    0.0100    0.0100    0.0100    0.0100    0.0100    0.0100    0.0100    0.0100
    0.0100    0.0100    0.0100    0.0100    0.0100    0.0100    0.0100    0.0100
    0.0100    0.0100    0.0100    0.0100    0.0100    0.0100    0.0100    0.0100
    0.0100    0.0100    0.0100    0.0100    0.0100    0.0100    0.0100    0.0100
    0.0100    0.0100    0.0100    0.0100    0.0100    0.0100    0.0100    0.0100
    0.0100    0.0100    0.0100    0.0100    0.0100    0.0100    0.0100    0.0100
    0.0100    0.0100    0.0100    0.0100    0.0100    0.0100    0.0100    0.0100
    0.0100    0.0100    0.0100    0.0100    0.0100    0.0100    0.0100    0.0100
    0.0100    0.0100    0.0100    0.0100    0.0100    0.0100    0.0100    0.0100
    0.0100    0.0100    0.0100    0.0100    0.0100    0.0100    0.0100    0.0100
    0.0100    0.0100    0.0100    0.0100    0.0100    0.0100    0.0100    0.0100
    0.0100    0.0100    0.0100    0.0100    0.0100    0.0100    0.0100    0.0100
    0.0100    0.0100    0.0100    0.0100    0.0100    0.0100    0.0100    0.0100
    0.0100    0.0100    0.0100    0.0100    0.0100    0.0100    0.0100    0.0100
    0.0100    0.0100    0.0100    0.0100    0.0100    0.0100    0.0100    0.0100
    0.0100    0.0100    0.0100    0.0100    0.0100    0.0100    0.0100    0.0100
    0.0100    0.0100    0.0100    0.0100    0.0100    0.0100    0.0100    0.0100
    0.0100    0.0100    0.0100    0.0100    0.0100    0.0100    0.0100    0.0100
    0.0100    0.0100    0.0100    0.0100    0.0100    0.0100    0.0100    0.0100
    0.0100    0.0100    0.0100    0.0100    0.0100    0.0100    0.0100    0.0100
    0.0100    0.0100    0.0100    0.0100    0.0100    0.0100    0.0100    0.0100
    0.0100    0.0100    0.0100    0.0100    0.0100    0.0100    0.0100    0.0100
    0.0100    0.0100    0.0100    0.0100    0.0100    0.0100    0.0100    0.0100
    0.0100    0.0100    0.0100    0.0100    0.0100    0.0100    0.0100    0.0100
    0.0100    0.0100    0.0100    0.0100    0.0100    0.0100    0.0100    0.0100
    0.0100    0.0100    0.0100    0.0100    0.0100    0.0100    0.0100    0.0100
    0.0100    0.0100    0.0100    0.0100    0.0100    0.0100    0.0100    0.0100
    0.0100    0.0100    0.0100    0.0100    0.0100    0.0100    0.0100    0.0100
    0.0100    0.0100    0.0100    0.0100    0.0100    0.0100    0.0100    0.0100
    0.0100    0.0100    0.0100    0.0100    0.0100    0.0100    0.0100    0.0100
    0.0100    0.0100    0.0100    0.0100    0.0100    0.0100    0.0100    0.0100
    0.0100    0.0100    0.0100    0.0100    0.0100    0.0100    0.0100    0.0100
    0.0100    0.0100    0.0100    0.0100    0.0100    0.0100    0.0100    0.0100
    0.0100    0.0100    0.0100    0.0100    0.0100    0.0100    0.0100    0.0100
    0.0100    0.0100    0.0100    0.0100    0.0100    0.0100    0.0100    0.0100
    0.0100    0.0100    0.0100    0.0100    0.0100    0.0100    0.0100    0.0100
    0.0100    0.0100    0.0100    0.0100    0.0100    0.0100    0.0100    0.0100
    0.0100    0.0100    0.0100    0.0100    0.0100    0.0100    0.0100    0.0100
    0.0100    0.0100    0.0100    0.0100    0.0100    0.0100    0.0100    0.0100
    0.0100    0.0100    0.0100    0.0100    0.0100    0.0100    0.0100    0.0100
    0.0100    0.0100    0.0100    0.0100    0.0100    0.0100    0.0100    0.0100
    0.0100    0.0100    0.0100    0.0100    0.0100    0.0100    0.0100    0.0100
    0.0100    0.0100    0.0100    0.0100    0.0100    0.0100    0.0100    0.0100
    0.0100    0.0100    0.0100    0.0100    0.0100    0.0100    0.0100    0.0100
    0.0100    0.0100    0.0100    0.0100    0.0100    0.0100    0.0100    0.0100
    0.0100    0.0100    0.0100    0.0100    0.0100    0.0100    0.0100    0.0100
    0.0100    0.0100    0.0100    0.0100    0.0100    0.0100    0.0100    0.0100
    0.0100    0.0100    0.0100    0.0100    0.0100    0.0100    0.0100    0.0100
    0.0100    0.0100    0.0100    0.0100    0.0100    0.0100    0.0100    0.0100
    0.0100    0.0100    0.0100    0.0100    0.0100    0.0100    0.0100    0.0100
    0.0100    0.0100    0.0100    0.0100    0.0100    0.0100    0.0100    0.0100
    0.0100    0.0100    0.0100    0.0100    0.0100    0.0100    0.0100    0.0100
    0.0100    0.0100    0.0100    0.0100    0.0100    0.0100    0.0100    0.0100
    0.0100    0.0100    0.0100    0.0100    0.0100    0.0100    0.0100    0.0100
    0.0100    0.0100    0.0100    0.0100    0.0100    0.0100    0.0100    0.0100
    0.0100    0.0100    0.0100    0.0100    0.0100    0.0100    0.0100    0.0100
    0.0100    0.0100    0.0100    0.0100    0.0100    0.0100    0.0100    0.0100
    0.0100    0.0100    0.0100    0.0100    0.0100    0.0100    0.0100    0.0100
    0.0100    0.0100    0.0100    0.0100    0.0100    0.0100    0.0100    0.0100
    0.0100    0.0100    0.0100    0.0100    0.0100    0.0100    0.0100    0.0100
    0.0100    0.0100    0.0100    0.0100    0.0100    0.0100    0.0100    0.0100
    0.0100    0.0100    0.0100    0.0100    0.0100    0.0100    0.0100    0.0100
    0.0100    0.0100    0.0100    0.0100    0.0100    0.0100    0.0100    0.0100
    0.0100    0.0100    0.0100    0.0100    0.0100    0.0100    0.0100    0.0100
    0.0100    0.0100    0.0100    0.0100    0.0100    0.0100    0.0100    0.0100
    0.0100    0.0100    0.0100    0.0100    0.0100    0.0100    0.0100    0.0100
    0.0100    0.0100    0.0100    0.0100    0.0100    0.0100    0.0100    0.0100
    0.0100    0.0100    0.0100    0.0100    0.0100    0.0100    0.0100    0.0100
    0.0100    0.0100    0.0100    0.0100    0.0100    0.0100    0.0100    0.0100
    0.0100    0.0100    0.0100    0.0100    0.0100    0.0100    0.0100    0.0100
    0.0100    0.0100    0.0100    0.0100    0.0100    0.0100    0.0100    0.0100
    0.0100    0.0100    0.0100    0.0100    0.0100    0.0100    0.0100    0.0100
    0.0100    0.0100    0.0100    0.0100    0.0100    0.0100    0.0100    0.0100
    0.0100    0.0100    0.0100    0.0100    0.0100    0.0100    0.0100    0.0100
    0.0100    0.0100    0.0100    0.0100    0.0100    0.0100    0.0100    0.0100
    0.0100    0.0100    0.0100    0.0100    0.0100    0.0100    0.0100    0.0100
    0.0100    0.0100    0.0100    0.0100    0.0100    0.0100    0.0100    0.0100
    0.0100    0.0100    0.0100    0.0100    0.0100    0.0100    0.0100    0.0100
    0.0100    0.0100    0.0100    0.0100    0.0100    0.0100    0.0100    0.0100
    0.0100    0.0100    0.0100    0.0100    0.0100    0.0100    0.0100    0.0100
    0.0100    0.0100    0.0100    0.0100    0.0100    0.0100    0.0100    0.0100
    0.0100    0.0100    0.0100    0.0100    0.0100    0.0100    0.0100    0.0100
    0.0100    0.0100    0.0100    0.0100    0.0100    0.0100    0.0100    0.0100
    0.0100    0.0100    0.0100    0.0100    0.0100    0.0100    0.0100    0.0100
    0.0100    0.0100    0.0100    0.0100    0.0100    0.0100    0.0100    0.0100
    0.0100    0.0100    0.0100    0.0100    0.0100    0.0100    0.0100    0.0100
    0.0100    0.0100    0.0100    0.0100    0.0100    0.0100    0.0100    0.0100
    0.0100    0.0100    0.0100    0.0100    0.0100    0.0100    0.0100    0.0100
    0.0100    0.0100    0.0100    0.0100    0.0100    0.0100    0.0100    0.0100
    0.0100    0.0100    0.0100    0.0100    0.0100    0.0100    0.0100    0.0100
    0.0100    0.0100    0.0100    0.0100    0.0100    0.0100    0.0100    0.0100
    0.0100    0.0100    0.0100    0.0100    0.0100    0.0100    0.0100    0.0100
    0.0100    0.0100    0.0100    0.0100    0.0100    0.0100    0.0100    0.0100
    0.0100    0.0100    0.0100    0.0100    0.0100    0.0100    0.0100    0.0100
    0.0100    0.0100    0.0100    0.0100    0.0100    0.0100    0.0100    0.0100
    0.0100    0.0100    0.0100    0.0100    0.0100    0.0100    0.0100    0.0100
    0.0100    0.0100    0.0100    0.0100    0.0100    0.0100    0.0100    0.0100
    0.0100    0.0100    0.0100    0.0100    0.0100    0.0100    0.0100    0.0100
    0.0100    0.0100    0.0100    0.0100    0.0100    0.0100    0.0100    0.0100
    0.0100    0.0100    0.0100    0.0100    0.0100    0.0100    0.0100    0.0100
    0.0100    0.0100    0.0100    0.0100    0.0100    0.0100    0.0100    0.0100
    0.0100    0.0100    0.0100    0.0100    0.0100    0.0100    0.0100    0.0100
    0.0100    0.0100    0.0100    0.0100    0.0100    0.0100    0.0100    0.0100
    0.0100    0.0100    0.0100    0.0100    0.0100    0.0100    0.0100    0.0100
    0.0100    0.0100    0.0100    0.0100    0.0100    0.0100    0.0100    0.0100
    0.0100    0.0100    0.0100    0.0100    0.0100    0.0100    0.0100    0.0100
    0.0100    0.0100    0.0100    0.0100    0.0100    0.0100    0.0100    0.0100
    0.0100    0.0100    0.0100    0.0100    0.0100    0.0100    0.0100    0.0100
    0.0100    0.0100    0.0100    0.0100    0.0100    0.0100    0.0100    0.0100
    0.0100    0.0100    0.0100    0.0100    0.0100    0.0100    0.0100    0.0100
    0.0100    0.0100    0.0100    0.0100    0.0100    0.0100    0.0100    0.0100
    0.0100    0.0100    0.0100    0.0100    0.0100    0.0100    0.0100    0.0100
    0.0100    0.0100    0.0100    0.0100    0.0100    0.0100    0.0100    0.0100
    0.0100    0.0100    0.0100    0.0100    0.0100    0.0100    0.0100    0.0100
    0.0100    0.0100    0.0100    0.0100    0.0100    0.0100    0.0100    0.0100
    0.0100    0.0100    0.0100    0.0100    0.0100    0.0100    0.0100    0.0100
    0.0100    0.0100    0.0100    0.0100    0.0100    0.0100    0.0100    0.0100
    0.0100    0.0100    0.0100    0.0100    0.0100    0.0100    0.0100    0.0100
    0.0100    0.0100    0.0100    0.0100    0.0100    0.0100    0.0100    0.0100
    0.0100    0.0100    0.0100    0.0100    0.0100    0.0100    0.0100    0.0100
    0.0100    0.0100    0.0100    0.0100    0.0100    0.0100    0.0100    0.0100
    0.0100    0.0100    0.0100    0.0100    0.0100    0.0100    0.0100    0.0100
    0.0100    0.0100    0.0100    0.0100    0.0100    0.0100    0.0100    0.0100
    0.0100    0.0100    0.0100    0.0100    0.0100    0.0100    0.0100    0.0100
    0.0100    0.0100    0.0100    0.0100    0.0100    0.0100    0.0100    0.0100
    0.0100    0.0100    0.0100    0.0100    0.0100    0.0100    0.0100    0.0100
    0.0100    0.0100    0.0100    0.0100    0.0100    0.0100    0.0100    0.0100
    0.0100    0.0100    0.0100    0.0100    0.0100    0.0100    0.0100    0.0100
    0.0100    0.0100    0.0100    0.0100    0.0100    0.0100    0.0100    0.0100
    0.0100    0.0100    0.0100    0.0100    0.0100    0.0100    0.0100    0.0100
    0.0100    0.0100    0.0100    0.0100    0.0100    0.0100    0.0100    0.0100
    0.0100    0.0100    0.0100    0.0100    0.0100    0.0100    0.0100    0.0100
    0.0100    0.0100    0.0100    0.0100    0.0100    0.0100    0.0100    0.0100
    0.0100    0.0100    0.0100    0.0100    0.0100    0.0100    0.0100    0.0100
    0.0100    0.0100    0.0100    0.0100    0.0100    0.0100    0.0100    0.0100
    0.0100    0.0100    0.0100    0.0100    0.0100    0.0100    0.0100    0.0100
    0.0100    0.0100    0.0100    0.0100    0.0100    0.0100    0.0100    0.0100
    0.0100    0.0100    0.0100    0.0100    0.0100    0.0100    0.0100    0.0100
    0.0100    0.0100    0.0100    0.0100    0.0100    0.0100    0.0100    0.0100
    0.0100    0.0100    0.0100    0.0100    0.0100    0.0100    0.0100    0.0100
    0.0100    0.0100    0.0100    0.0100    0.0100    0.0100    0.0100    0.0100
    0.0100    0.0100    0.0100    0.0100    0.0100    0.0100    0.0100    0.0100
    0.0100    0.0100    0.0100    0.0100    0.0100    0.0100    0.0100    0.0100
    0.0100    0.0100    0.0100    0.0100    0.0100    0.0100    0.0100    0.0100
    0.0100    0.0100    0.0100    0.0100    0.0100    0.0100    0.0100    0.0100
    0.0100    0.0100    0.0100    0.0100    0.0100    0.0100    0.0100    0.0100
    0.0100    0.0100    0.0100    0.0100    0.0100    0.0100    0.0100    0.0100
    0.0100    0.0100    0.0100    0.0100    0.0100    0.0100    0.0100    0.0100
    0.0100    0.0100    0.0100    0.0100    0.0100    0.0100    0.0100    0.0100
    0.0100    0.0100    0.0100    0.0100    0.0100    0.0100    0.0100    0.0100
    0.0100    0.0100    0.0100    0.0100    0.0100    0.0100    0.0100    0.0100
    0.0100    0.0100    0.0100    0.0100    0.0100    0.0100    0.0100    0.0100
    0.0100    0.0100    0.0100    0.0100    0.0100    0.0100    0.0100    0.0100
    0.0100    0.0100    0.0100    0.0100    0.0100    0.0100    0.0100    0.0100
    0.0100    0.0100    0.0100    0.0100    0.0100    0.0100    0.0100    0.0100
    0.0100    0.0100    0.0100    0.0100    0.0100    0.0100    0.0100    0.0100
    0.0100    0.0100    0.0100    0.0100    0.0100    0.0100    0.0100    0.0100
    0.0100    0.0100    0.0100    0.0100    0.0100    0.0100    0.0100    0.0100
    0.0100    0.0100    0.0100    0.0100    0.0100    0.0100    0.0100    0.0100
    0.0100    0.0100    0.0100    0.0100    0.0100    0.0100    0.0100    0.0100
    0.0100    0.0100    0.0100    0.0100    0.0100    0.0100    0.0100    0.0100
    0.0100    0.0100    0.0100    0.0100    0.0100    0.0100    0.0100    0.0100
    0.0100    0.0100    0.0100    0.0100    0.0100    0.0100    0.0100    0.0100
    0.0100    0.0100    0.0100    0.0100    0.0100    0.0100    0.0100    0.0100
    0.0100    0.0100    0.0100    0.0100    0.0100    0.0100    0.0100    0.0100
    0.0100    0.0100    0.0100    0.0100    0.0100    0.0100    0.0100    0.0100
    0.0100    0.0100    0.0100    0.0100    0.0100    0.0100    0.0100    0.0100
    0.0100    0.0100    0.0100    0.0100    0.0100    0.0100    0.0100    0.0100
    0.0100    0.0100    0.0100    0.0100    0.0100    0.0100    0.0100    0.0100
    0.0100    0.0100    0.0100    0.0100    0.0100    0.0100    0.0100    0.0100
    0.0100    0.0100    0.0100    0.0100    0.0100    0.0100    0.0100    0.0100
    0.0100    0.0100    0.0100    0.0100    0.0100    0.0100    0.0100    0.0100
    0.0100    0.0100    0.0100    0.0100    0.0100    0.0100    0.0100    0.0100
    0.0100    0.0100    0.0100    0.0100    0.0100    0.0100    0.0100    0.0100
    0.0100    0.0100    0.0100    0.0100    0.0100    0.0100    0.0100    0.0100
    0.0100    0.0100    0.0100    0.0100    0.0100    0.0100    0.0100    0.0100
    0.0100    0.0100    0.0100    0.0100    0.0100    0.0100    0.0100    0.0100
    0.0100    0.0100    0.0100    0.0100    0.0100    0.0100    0.0100    0.0100
    0.0100    0.0100    0.0100    0.0100    0.0100    0.0100    0.0100    0.0100
    0.0100    0.0100    0.0100    0.0100    0.0100    0.0100    0.0100    0.0100
    0.0100    0.0100    0.0100    0.0100    0.0100    0.0100    0.0100    0.0100
    0.0100    0.0100    0.0100    0.0100    0.0100    0.0100    0.0100    0.0100
    0.0100    0.0100    0.0100    0.0100    0.0100    0.0100    0.0100    0.0100
    0.0100    0.0100    0.0100    0.0100    0.0100    0.0100    0.0100    0.0100
    0.0100    0.0100    0.0100    0.0100    0.0100    0.0100    0.0100    0.0100
    0.0100    0.0100    0.0100    0.0100    0.0100    0.0100    0.0100    0.0100
    0.0100    0.0100    0.0100    0.0100    0.0100    0.0100    0.0100    0.0100
    0.0100    0.0100    0.0100    0.0100    0.0100    0.0100    0.0100    0.0100
    0.0100    0.0100    0.0100    0.0100    0.0100    0.0100    0.0100    0.0100
    0.0100    0.0100    0.0100    0.0100    0.0100    0.0100    0.0100    0.0100
    0.0100    0.0100    0.0100    0.0100    0.0100    0.0100    0.0100    0.0100
    0.0100    0.0100    0.0100    0.0100    0.0100    0.0100    0.0100    0.0100
    0.0100    0.0100    0.0100    0.0100    0.0100    0.0100    0.0100    0.0100
    0.0100    0.0100    0.0100    0.0100    0.0100    0.0100    0.0100    0.0100
    0.0100    0.0100    0.0100    0.0100    0.0100    0.0100    0.0100    0.0100
    0.0100    0.0100    0.0100    0.0100    0.0100    0.0100    0.0100    0.0100
    0.0100    0.0100    0.0100    0.0100    0.0100    0.0100    0.0100    0.0100
    0.0100    0.0100    0.0100    0.0100    0.0100    0.0100    0.0100    0.0100
    0.0100    0.0100    0.0100    0.0100    0.0100    0.0100    0.0100    0.0100
    0.0100    0.0100    0.0100    0.0100    0.0100    0.0100    0.0100    0.0100
    0.0100    0.0100    0.0100    0.0100    0.0100    0.0100    0.0100    0.0100
    0.0100    0.0100    0.0100    0.0100    0.0100    0.0100    0.0100    0.0100
    0.0100    0.0100    0.0100    0.0100    0.0100    0.0100    0.0100    0.0100
    0.0100    0.0100    0.0100    0.0100    0.0100    0.0100    0.0100    0.0100
    0.0100    0.0100    0.0100    0.0100    0.0100    0.0100    0.0100    0.0100
    0.0100    0.0100    0.0100    0.0100    0.0100    0.0100    0.0100    0.0100
    0.0100    0.0100    0.0100    0.0100    0.0100    0.0100    0.0100    0.0100
    0.0100    0.0100    0.0100    0.0100    0.0100    0.0100    0.0100    0.0100
    0.0100    0.0100    0.0100    0.0100    0.0100    0.0100    0.0100    0.0100
    0.0100    0.0100    0.0100    0.0100    0.0100    0.0100    0.0100    0.0100
    0.0100    0.0100    0.0100    0.0100    0.0100    0.0100    0.0100    0.0100
    0.0100    0.0100    0.0100    0.0100    0.0100    0.0100    0.0100    0.0100
    0.0100    0.0100    0.0100    0.0100    0.0100    0.0100    0.0100    0.0100
    0.0100    0.0100    0.0100    0.0100    0.0100    0.0100    0.0100    0.0100
    0.0100    0.0100    0.0100    0.0100    0.0100    0.0100    0.0100    0.0100
    0.0100    0.0100    0.0100    0.0100    0.0100    0.0100    0.0100    0.0100
    0.0100    0.0100    0.0100    0.0100    0.0100    0.0100    0.0100    0.0100
    0.0100    0.0100    0.0100    0.0100    0.0100    0.0100    0.0100    0.0100
    0.0100    0.0100    0.0100    0.0100    0.0100    0.0100    0.0100    0.0100
    0.0100    0.0100    0.0100    0.0100    0.0100    0.0100    0.0100    0.0100
    0.0100    0.0100    0.0100    0.0100    0.0100    0.0100    0.0100    0.0100
    0.0100    0.0100    0.0100    0.0100    0.0100    0.0100    0.0100    0.0100
    0.0100    0.0100    0.0100    0.0100    0.0100    0.0100    0.0100    0.0100
    0.0100    0.0100    0.0100    0.0100    0.0100    0.0100    0.0100    0.0100
    0.0100    0.0100    0.0100    0.0100    0.0100    0.0100    0.0100    0.0100
    0.0100    0.0100    0.0100    0.0100    0.0100    0.0100    0.0100    0.0100
    0.0100    0.0100    0.0100    0.0100    0.0100    0.0100    0.0100    0.0100
    0.0100    0.0100    0.0100    0.0100    0.0100    0.0100    0.0100    0.0100
    0.0100    0.0100    0.0100    0.0100    0.0100    0.0100    0.0100    0.0100
    0.0100    0.0100    0.0100    0.0100    0.0100    0.0100    0.0100    0.0100
    0.0100    0.0100    0.0100    0.0100    0.0100    0.0100    0.0100    0.0100
    0.0100    0.0100    0.0100    0.0100    0.0100    0.0100    0.0100    0.0100
    0.0100    0.0100    0.0100    0.0100    0.0100    0.0100    0.0100    0.0100
    0.0100    0.0100    0.0100    0.0100    0.0100    0.0100    0.0100    0.0100
    0.0100    0.0100    0.0100    0.0100    0.0100    0.0100    0.0100    0.0100
    0.0100    0.0100    0.0100    0.0100    0.0100    0.0100    0.0100    0.0100
    0.0100    0.0100    0.0100    0.0100    0.0100    0.0100    0.0100    0.0100
    0.0100    0.0100    0.0100    0.0100    0.0100    0.0100    0.0100    0.0100
    0.0100    0.0100    0.0100    0.0100    0.0100    0.0100    0.0100    0.0100
    0.0100    0.0100    0.0100    0.0100    0.0100    0.0100    0.0100    0.0100
    0.0100    0.0100    0.0100    0.0100    0.0100    0.0100    0.0100    0.0100
    0.0100    0.0100    0.0100    0.0100    0.0100    0.0100    0.0100    0.0100
    0.0100    0.0100    0.0100    0.0100    0.0100    0.0100    0.0100    0.0100
    0.0100    0.0100    0.0100    0.0100    0.0100    0.0100    0.0100    0.0100
    0.0100    0.0100    0.0100    0.0100    0.0100    0.0100    0.0100    0.0100
    0.0100    0.0100    0.0100    0.0100    0.0100    0.0100    0.0100    0.0100
    0.0100    0.0100    0.0100    0.0100    0.0100    0.0100    0.0100    0.0100
    0.0100    0.0100    0.0100    0.0100    0.0100    0.0100    0.0100    0.0100
    0.0100    0.0100    0.0100    0.0100    0.0100    0.0100    0.0100    0.0100
    0.0100    0.0100    0.0100    0.0100    0.0100    0.0100    0.0100    0.0100
    0.0100    0.0100    0.0100    0.0100    0.0100    0.0100    0.0100    0.0100
    0.0100    0.0100    0.0100    0.0100    0.0100    0.0100    0.0100    0.0100
    0.0100    0.0100    0.0100    0.0100    0.0100    0.0100    0.0100    0.0100
    0.0100    0.0100    0.0100    0.0100    0.0100    0.0100    0.0100    0.0100
    0.0100    0.0100    0.0100    0.0100    0.0100    0.0100    0.0100    0.0100
    0.0100    0.0100    0.0100    0.0100    0.0100    0.0100    0.0100    0.0100
    0.0100    0.0100    0.0100    0.0100    0.0100    0.0100    0.0100    0.0100
    0.0100    0.0100    0.0100    0.0100    0.0100    0.0100    0.0100    0.0100
    0.0100    0.0100    0.0100    0.0100    0.0100    0.0100    0.0100    0.0100
    0.0100    0.0100    0.0100    0.0100    0.0100    0.0100    0.0100    0.0100
    0.0100    0.0100    0.0100    0.0100    0.0100    0.0100    0.0100    0.0100
    0.0100    0.0100    0.0100    0.0100    0.0100    0.0100    0.0100    0.0100
    0.0100    0.0100    0.0100    0.0100    0.0100    0.0100    0.0100    0.0100
    0.0100    0.0100    0.0100    0.0100    0.0100    0.0100    0.0100    0.0100
    0.0100    0.0100    0.0100    0.0100    0.0100    0.0100    0.0100    0.0100
    0.0100    0.0100    0.0100    0.0100    0.0100    0.0100    0.0100    0.0100
    0.0100    0.0100    0.0100    0.0100    0.0100    0.0100    0.0100    0.0100
    0.0100    0.0100    0.0100    0.0100    0.0100    0.0100    0.0100    0.0100
    0.0100    0.0100    0.0100    0.0100    0.0100    0.0100    0.0100    0.0100
    0.0100    0.0100    0.0100    0.0100    0.0100    0.0100    0.0100    0.0100
    0.0100    0.0100    0.0100    0.0100    0.0100    0.0100    0.0100    0.0100
    0.0100    0.0100    0.0100    0.0100    0.0100    0.0100    0.0100    0.0100
    0.0100    0.0100    0.0100    0.0100    0.0100    0.0100    0.0100    0.0100
    0.0100    0.0100    0.0100    0.0100    0.0100    0.0100    0.0100    0.0100
    0.0100    0.0100    0.0100    0.0100    0.0100    0.0100    0.0100    0.0100
    0.0100    0.0100    0.0100    0.0100    0.0100    0.0100    0.0100    0.0100
    0.0100    0.0100    0.0100    0.0100    0.0100    0.0100    0.0100    0.0100
    0.0100    0.0100    0.0100    0.0100    0.0100    0.0100    0.0100    0.0100
    0.0100    0.0100    0.0100    0.0100    0.0100    0.0100    0.0100    0.0100
    0.0100    0.0100    0.0100    0.0100    0.0100    0.0100    0.0100    0.0100
    0.0100    0.0100    0.0100    0.0100    0.0100    0.0100    0.0100    0.0100
    0.0100    0.0100    0.0100    0.0100    0.0100    0.0100    0.0100    0.0100
    0.0100    0.0100    0.0100    0.0100    0.0100    0.0100    0.0100    0.0100
    0.0100    0.0100    0.0100    0.0100    0.0100    0.0100    0.0100    0.0100
    0.0100    0.0100    0.0100    0.0100    0.0100    0.0100    0.0100    0.0100
    0.0100    0.0100    0.0100    0.0100    0.0100    0.0100    0.0100    0.0100
    0.0100    0.0100    0.0100    0.0100    0.0100    0.0100    0.0100    0.0100
    0.0100    0.0100    0.0100    0.0100    0.0100    0.0100    0.0100    0.0100
    0.0100    0.0100    0.0100    0.0100    0.0100    0.0100    0.0100    0.0100
    0.0100    0.0100    0.0100    0.0100    0.0100    0.0100    0.0100    0.0100
    0.0100    0.0100    0.0100    0.0100    0.0100    0.0100    0.0100    0.0100
    0.0100    0.0100    0.0100    0.0100    0.0100    0.0100    0.0100    0.0100
    0.0100    0.0100    0.0100    0.0100    0.0100    0.0100    0.0100    0.0100
    0.0100    0.0100    0.0100    0.0100    0.0100    0.0100    0.0100    0.0100
    0.0100    0.0100    0.0100    0.0100    0.0100    0.0100    0.0100    0.0100
    0.0100    0.0100    0.0100    0.0100    0.0100    0.0100    0.0100    0.0100
    0.0100    0.0100    0.0100    0.0100    0.0100    0.0100    0.0100    0.0100
    0.0100    0.0100    0.0100    0.0100    0.0100    0.0100    0.0100    0.0100
    0.0100    0.0100    0.0100    0.0100    0.0100    0.0100    0.0100    0.0100
    0.0100    0.0100    0.0100    0.0100    0.0100    0.0100    0.0100    0.0100
    0.0100    0.0100    0.0100    0.0100    0.0100    0.0100    0.0100    0.0100
    0.0100    0.0100    0.0100    0.0100    0.0100    0.0100    0.0100    0.0100
    0.0100    0.0100    0.0100    0.0100    0.0100    0.0100    0.0100    0.0100
    0.0100    0.0100    0.0100    0.0100    0.0100    0.0100    0.0100    0.0100
    0.0100    0.0100    0.0100    0.0100    0.0100    0.0100    0.0100    0.0100
    0.0100    0.0100    0.0100    0.0100    0.0100    0.0100    0.0100    0.0100
    0.0100    0.0100    0.0100    0.0100    0.0100    0.0100    0.0100    0.0100
    0.0100    0.0100    0.0100    0.0100    0.0100    0.0100    0.0100    0.0100
    0.0100    0.0100    0.0100    0.0100    0.0100    0.0100    0.0100    0.0100
    0.0100    0.0100    0.0100    0.0100    0.0100    0.0100    0.0100    0.0100
    0.0100    0.0100    0.0100    0.0100    0.0100    0.0100    0.0100    0.0100
    0.0100    0.0100    0.0100    0.0100    0.0100    0.0100    0.0100    0.0100
    0.0100    0.0100    0.0100    0.0100    0.0100    0.0100    0.0100    0.0100
    0.0100    0.0100    0.0100    0.0100    0.0100    0.0100    0.0100    0.0100
    0.0100    0.0100    0.0100    0.0100    0.0100    0.0100    0.0100    0.0100
    0.0100    0.0100    0.0100    0.0100    0.0100    0.0100    0.0100    0.0100
    0.0100    0.0100    0.0100    0.0100    0.0100    0.0100    0.0100    0.0100
    0.0100    0.0100    0.0100    0.0100    0.0100    0.0100    0.0100    0.0100
    0.0100    0.0100    0.0100    0.0100    0.0100    0.0100    0.0100    0.0100
    0.0100    0.0100    0.0100    0.0100    0.0100    0.0100    0.0100    0.0100
    0.0100    0.0100    0.0100    0.0100    0.0100    0.0100    0.0100    0.0100
    0.0100    0.0100    0.0100    0.0100    0.0100    0.0100    0.0100    0.0100
    0.0100    0.0100    0.0100    0.0100    0.0100    0.0100    0.0100    0.0100
    0.0100    0.0100    0.0100    0.0100    0.0100    0.0100    0.0100    0.0100
    0.0100    0.0100    0.0100    0.0100    0.0100    0.0100    0.0100    0.0100
    0.0100    0.0100    0.0100    0.0100    0.0100    0.0100    0.0100    0.0100
    0.0100    0.0100    0.0100    0.0100    0.0100    0.0100    0.0100    0.0100
    0.0100    0.0100    0.0100    0.0100    0.0100    0.0100    0.0100    0.0100
    0.0100    0.0100    0.0100    0.0100    0.0100    0.0100    0.0100    0.0100
    0.0100    0.0100    0.0100    0.0100    0.0100    0.0100    0.0100    0.0100
    0.0100    0.0100    0.0100    0.0100    0.0100    0.0100    0.0100    0.0100
    0.0100    0.0100    0.0100    0.0100    0.0100    0.0100    0.0100    0.0100
    0.0100    0.0100    0.0100    0.0100    0.0100    0.0100    0.0100    0.0100
    0.0100    0.0100    0.0100    0.0100    0.0100    0.0100    0.0100    0.0100
    0.0100    0.0100    0.0100    0.0100    0.0100    0.0100    0.0100    0.0100
    0.0100    0.0100    0.0100    0.0100    0.0100    0.0100    0.0100    0.0100
    0.0100    0.0100    0.0100    0.0100    0.0100    0.0100    0.0100    0.0100
    0.0100    0.0100    0.0100    0.0100    0.0100    0.0100    0.0100    0.0100
    0.0100    0.0100    0.0100    0.0100    0.0100    0.0100    0.0100    0.0100
    0.0100    0.0100    0.0100    0.0100    0.0100    0.0100    0.0100    0.0100
    0.0100    0.0100    0.0100    0.0100    0.0100    0.0100    0.0100    0.0100
    0.0100    0.0100    0.0100    0.0100    0.0100    0.0100    0.0100    0.0100
    0.0100    0.0100    0.0100    0.0100    0.0100    0.0100    0.0100    0.0100
    0.0100    0.0100    0.0100    0.0100    0.0100    0.0100    0.0100    0.0100
    0.0100    0.0100    0.0100    0.0100    0.0100    0.0100    0.0100    0.0100
    0.0100    0.0100    0.0100    0.0100    0.0100    0.0100    0.0100    0.0100
    0.0100    0.0100    0.0100    0.0100    0.0100    0.0100    0.0100    0.0100
    0.0100    0.0100    0.0100    0.0100    0.0100    0.0100    0.0100    0.0100
    0.0100    0.0100    0.0100    0.0100    0.0100    0.0100    0.0100    0.0100
    0.0100    0.0100    0.0100    0.0100    0.0100    0.0100    0.0100    0.0100
    0.0100    0.0100    0.0100    0.0100    0.0100    0.0100    0.0100    0.0100
    0.0100    0.0100    0.0100    0.0100    0.0100    0.0100    0.0100    0.0100
    0.0100    0.0100    0.0100    0.0100    0.0100    0.0100    0.0100    0.0100
    0.0100    0.0100    0.0100    0.0100    0.0100    0.0100    0.0100    0.0100
    0.0100    0.0100    0.0100    0.0100    0.0100    0.0100    0.0100    0.0100
    0.0100    0.0100    0.0100    0.0100    0.0100    0.0100    0.0100    0.0100
    0.0100    0.0100    0.0100    0.0100    0.0100    0.0100    0.0100    0.0100
    0.0100    0.0100    0.0100    0.0100    0.0100    0.0100    0.0100    0.0100
    0.0100    0.0100    0.0100    0.0100    0.0100    0.0100    0.0100    0.0100
    0.0100    0.0100    0.0100    0.0100    0.0100    0.0100    0.0100    0.0100
    0.0100    0.0100    0.0100    0.0100    0.0100    0.0100    0.0100    0.0100
    0.0100    0.0100    0.0100    0.0100    0.0100    0.0100    0.0100    0.0100
    0.0100    0.0100    0.0100    0.0100    0.0100    0.0100    0.0100    0.0100
    0.0100    0.0100    0.0100    0.0100    0.0100    0.0100    0.0100    0.0100
    0.0100    0.0100    0.0100    0.0100    0.0100    0.0100    0.0100    0.0100
    0.0100    0.0100    0.0100    0.0100    0.0100    0.0100    0.0100    0.0100
    0.0100    0.0100    0.0100    0.0100    0.0100    0.0100    0.0100    0.0100
    0.0100    0.0100    0.0100    0.0100    0.0100    0.0100    0.0100    0.0100
    0.0100    0.0100    0.0100    0.0100    0.0100    0.0100    0.0100    0.0100
    0.0100    0.0100    0.0100    0.0100    0.0100    0.0100    0.0100    0.0100
    0.0100    0.0100    0.0100    0.0100    0.0100    0.0100    0.0100    0.0100
    0.0100    0.0100    0.0100    0.0100    0.0100    0.0100    0.0100    0.0100
    0.0100    0.0100    0.0100    0.0100    0.0100    0.0100    0.0100    0.0100
    0.0100    0.0100    0.0100    0.0100    0.0100    0.0100    0.0100    0.0100
    0.0100    0.0100    0.0100    0.0100    0.0100    0.0100    0.0100    0.0100
    0.0100    0.0100    0.0100    0.0100    0.0100    0.0100    0.0100    0.0100
    0.0100    0.0100    0.0100    0.0100    0.0100    0.0100    0.0100    0.0100
    0.0100    0.0100    0.0100    0.0100    0.0100    0.0100    0.0100    0.0100
    0.0100    0.0100    0.0100    0.0100    0.0100    0.0100    0.0100    0.0100
    0.0100    0.0100    0.0100    0.0100    0.0100    0.0100    0.0100    0.0100
    0.0100    0.0100    0.0100    0.0100    0.0100    0.0100    0.0100    0.0100
    0.0100    0.0100    0.0100    0.0100    0.0100    0.0100    0.0100    0.0100
    0.0100    0.0100    0.0100    0.0100    0.0100    0.0100    0.0100    0.0100
    0.0100    0.0100    0.0100    0.0100    0.0100    0.0100    0.0100    0.0100
    0.0100    0.0100    0.0100    0.0100    0.0100    0.0100    0.0100    0.0100
    0.0100    0.0100    0.0100    0.0100    0.0100    0.0100    0.0100    0.0100
    0.0100    0.0100    0.0100    0.0100    0.0100    0.0100    0.0100    0.0100
    0.0100    0.0100    0.0100    0.0100    0.0100    0.0100    0.0100    0.0100
    0.0100    0.0100    0.0100    0.0100    0.0100    0.0100    0.0100    0.0100
    0.0100    0.0100    0.0100    0.0100    0.0100    0.0100    0.0100    0.0100
    0.0100    0.0100    0.0100    0.0100    0.0100    0.0100    0.0100    0.0100
    0.0100    0.0100    0.0100    0.0100    0.0100    0.0100    0.0100    0.0100
    0.0100    0.0100    0.0100    0.0100    0.0100    0.0100    0.0100    0.0100
    0.0100    0.0100    0.0100    0.0100    0.0100    0.0100    0.0100    0.0100
    0.0100    0.0100    0.0100    0.0100    0.0100    0.0100    0.0100    0.0100
    0.0100    0.0100    0.0100    0.0100    0.0100    0.0100    0.0100    0.0100
    0.0100    0.0100    0.0100    0.0100    0.0100    0.0100    0.0100    0.0100
    0.0100    0.0100    0.0100    0.0100    0.0100    0.0100    0.0100    0.0100
    0.0100    0.0100    0.0100    0.0100    0.0100    0.0100    0.0100    0.0100
    0.0100    0.0100    0.0100    0.0100    0.0100    0.0100    0.0100    0.0100
    0.0100    0.0100    0.0100    0.0100    0.0100    0.0100    0.0100    0.0100
    0.0100    0.0100    0.0100    0.0100    0.0100    0.0100    0.0100    0.0100
    0.0100    0.0100    0.0100    0.0100    0.0100    0.0100    0.0100    0.0100
    0.0100    0.0100    0.0100    0.0100    0.0100    0.0100    0.0100    0.0100
    0.0100    0.0100    0.0100    0.0100    0.0100    0.0100    0.0100    0.0100
    0.0100    0.0100    0.0100    0.0100    0.0100    0.0100    0.0100    0.0100
    0.0100    0.0100    0.0100    0.0100    0.0100    0.0100    0.0100    0.0100
    0.0100    0.0100    0.0100    0.0100    0.0100    0.0100    0.0100    0.0100
    0.0100    0.0100    0.0100    0.0100    0.0100    0.0100    0.0100    0.0100
    0.0100    0.0100    0.0100    0.0100    0.0100    0.0100    0.0100    0.0100
    0.0100    0.0100    0.0100    0.0100    0.0100    0.0100    0.0100    0.0100
    0.0100    0.0100    0.0100    0.0100    0.0100    0.0100    0.0100    0.0100
    0.0100    0.0100    0.0100    0.0100    0.0100    0.0100    0.0100    0.0100
    0.0100    0.0100    0.0100    0.0100    0.0100    0.0100    0.0100    0.0100
    0.0100    0.0100    0.0100    0.0100    0.0100    0.0100    0.0100    0.0100
    0.0100    0.0100    0.0100    0.0100    0.0100    0.0100    0.0100    0.0100
    0.0100    0.0100    0.0100    0.0100    0.0100    0.0100    0.0100    0.0100
    0.0100    0.0100    0.0100    0.0100    0.0100    0.0100    0.0100    0.0100
    0.0100    0.0100    0.0100    0.0100    0.0100    0.0100    0.0100    0.0100
    0.0100    0.0100    0.0100    0.0100    0.0100    0.0100    0.0100    0.0100
    0.0100    0.0100    0.0100    0.0100    0.0100    0.0100    0.0100    0.0100
    0.0100    0.0100    0.0100    0.0100    0.0100    0.0100    0.0100    0.0100
    0.0100    0.0100    0.0100    0.0100    0.0100    0.0100    0.0100    0.0100
    0.0100    0.0100    0.0100    0.0100    0.0100    0.0100    0.0100    0.0100
    0.0100    0.0100    0.0100    0.0100    0.0100    0.0100    0.0100    0.0100
    0.0100    0.0100    0.0100    0.0100    0.0100    0.0100    0.0100    0.0100
    0.0100    0.0100    0.0100    0.0100    0.0100    0.0100    0.0100    0.0100
    0.0100    0.0100    0.0100    0.0100    0.0100    0.0100    0.0100    0.0100
    0.0100    0.0100    0.0100    0.0100    0.0100    0.0100    0.0100    0.0100
    0.0100    0.0100    0.0100    0.0100    0.0100    0.0100    0.0100    0.0100
    0.0100    0.0100    0.0100    0.0100    0.0100    0.0100    0.0100    0.0100
    0.0100    0.0100    0.0100    0.0100    0.0100    0.0100    0.0100    0.0100
    0.0100    0.0100    0.0100    0.0100    0.0100    0.0100    0.0100    0.0100
    0.0100    0.0100    0.0100    0.0100    0.0100    0.0100    0.0100    0.0100
    0.0100    0.0100    0.0100    0.0100    0.0100    0.0100    0.0100    0.0100
    0.0100    0.0100    0.0100    0.0100    0.0100    0.0100    0.0100    0.0100
    0.0100    0.0100    0.0100    0.0100    0.0100    0.0100    0.0100    0.0100
    0.0100    0.0100    0.0100    0.0100    0.0100    0.0100    0.0100    0.0100
    0.0100    0.0100    0.0100    0.0100    0.0100    0.0100    0.0100    0.0100
    0.0100    0.0100    0.0100    0.0100    0.0100    0.0100    0.0100    0.0100
    0.0100    0.0100    0.0100    0.0100    0.0100    0.0100    0.0100    0.0100
    0.0100    0.0100    0.0100    0.0100    0.0100    0.0100    0.0100    0.0100
    0.0100    0.0100    0.0100    0.0100    0.0100    0.0100    0.0100    0.0100
    0.0100    0.0100    0.0100    0.0100    0.0100    0.0100    0.0100    0.0100
    0.0100    0.0100    0.0100    0.0100    0.0100    0.0100    0.0100    0.0100
    0.0100    0.0100    0.0100    0.0100    0.0100    0.0100    0.0100    0.0100
    0.0100    0.0100    0.0100    0.0100    0.0100    0.0100    0.0100    0.0100
    0.0100    0.0100    0.0100    0.0100    0.0100    0.0100    0.0100    0.0100
    0.0100    0.0100    0.0100    0.0100    0.0100    0.0100    0.0100    0.0100
    0.0100    0.0100    0.0100    0.0100    0.0100    0.0100    0.0100    0.0100
    0.0100    0.0100    0.0100    0.0100    0.0100    0.0100    0.0100    0.0100
    0.0100    0.0100    0.0100    0.0100    0.0100    0.0100    0.0100    0.0100
    0.0100    0.0100    0.0100    0.0100    0.0100    0.0100    0.0100    0.0100
    0.0100    0.0100    0.0100    0.0100    0.0100    0.0100    0.0100    0.0100
    0.0100    0.0100    0.0100    0.0100    0.0100    0.0100    0.0100    0.0100
    0.0100    0.0100    0.0100    0.0100    0.0100    0.0100    0.0100    0.0100
    0.0100    0.0100    0.0100    0.0100    0.0100    0.0100    0.0100    0.0100
    0.0100    0.0100    0.0100    0.0100    0.0100    0.0100    0.0100    0.0100
    0.0100    0.0100    0.0100    0.0100    0.0100    0.0100    0.0100    0.0100
    0.0100    0.0100    0.0100    0.0100    0.0100    0.0100    0.0100    0.0100
    0.0100    0.0100    0.0100    0.0100    0.0100    0.0100    0.0100    0.0100
    0.0100    0.0100    0.0100    0.0100    0.0100    0.0100    0.0100    0.0100
    0.0100    0.0100    0.0100    0.0100    0.0100    0.0100    0.0100    0.0100
    0.0100    0.0100    0.0100    0.0100    0.0100    0.0100    0.0100    0.0100
    0.0100    0.0100    0.0100    0.0100    0.0100    0.0100    0.0100    0.0100
    0.0100    0.0100    0.0100    0.0100    0.0100    0.0100    0.0100    0.0100
    0.0100    0.0100    0.0100    0.0100    0.0100    0.0100    0.0100    0.0100
    0.0100    0.0100    0.0100    0.0100    0.0100    0.0100    0.0100    0.0100
    0.0100    0.0100    0.0100    0.0100    0.0100    0.0100    0.0100    0.0100
    0.0100    0.0100    0.0100    0.0100    0.0100    0.0100    0.0100    0.0100
    0.0100    0.0100    0.0100    0.0100    0.0100    0.0100    0.0100    0.0100
    0.0100    0.0100    0.0100    0.0100    0.0100    0.0100    0.0100    0.0100
    0.0100    0.0100    0.0100    0.0100    0.0100    0.0100    0.0100    0.0100
    0.0100    0.0100    0.0100    0.0100    0.0100    0.0100    0.0100    0.0100
    0.0100    0.0100    0.0100    0.0100    0.0100    0.0100    0.0100    0.0100
    0.0100    0.0100    0.0100    0.0100    0.0100    0.0100    0.0100    0.0100
    0.0100    0.0100    0.0100    0.0100    0.0100    0.0100    0.0100    0.0100
    0.0100    0.0100    0.0100    0.0100    0.0100    0.0100    0.0100    0.0100
    0.0100    0.0100    0.0100    0.0100    0.0100    0.0100    0.0100    0.0100
    0.0100    0.0100    0.0100    0.0100    0.0100    0.0100    0.0100    0.0100
    0.0100    0.0100    0.0100    0.0100    0.0100    0.0100    0.0100    0.0100
    0.0100    0.0100    0.0100    0.0100    0.0100    0.0100    0.0100    0.0100
    0.0100    0.0100    0.0100    0.0100    0.0100    0.0100    0.0100    0.0100
    0.0100    0.0100    0.0100    0.0100    0.0100    0.0100    0.0100    0.0100
    0.0100    0.0100    0.0100    0.0100    0.0100    0.0100    0.0100    0.0100
    0.0100    0.0100    0.0100    0.0100    0.0100    0.0100    0.0100    0.0100
    0.0100    0.0100    0.0100    0.0100    0.0100    0.0100    0.0100    0.0100
    0.0100    0.0100    0.0100    0.0100    0.0100    0.0100    0.0100    0.0100
    0.0100    0.0100    0.0100    0.0100    0.0100    0.0100    0.0100    0.0100
    0.0100    0.0100    0.0100    0.0100    0.0100    0.0100    0.0100    0.0100
    0.0100    0.0100    0.0100    0.0100    0.0100    0.0100    0.0100    0.0100
    0.0100    0.0100    0.0100    0.0100    0.0100    0.0100    0.0100    0.0100
    0.0100    0.0100    0.0100    0.0100    0.0100    0.0100    0.0100    0.0100
    0.0100    0.0100    0.0100    0.0100    0.0100    0.0100    0.0100    0.0100
    0.0100    0.0100    0.0100    0.0100    0.0100    0.0100    0.0100    0.0100
    0.0100    0.0100    0.0100    0.0100    0.0100    0.0100    0.0100    0.0100
    0.0100    0.0100    0.0100    0.0100    0.0100    0.0100    0.0100    0.0100
    0.0100    0.0100    0.0100    0.0100    0.0100    0.0100    0.0100    0.0100
    0.0100    0.0100    0.0100    0.0100    0.0100    0.0100    0.0100    0.0100
    0.0100    0.0100    0.0100    0.0100    0.0100    0.0100    0.0100    0.0100
    0.0100    0.0100    0.0100    0.0100    0.0100    0.0100    0.0100    0.0100
    0.0100    0.0100    0.0100    0.0100    0.0100    0.0100    0.0100    0.0100
    0.0100    0.0100    0.0100    0.0100    0.0100    0.0100    0.0100    0.0100
    0.0100    0.0100    0.0100    0.0100    0.0100    0.0100    0.0100    0.0100
    0.0100    0.0100    0.0100    0.0100    0.0100    0.0100    0.0100    0.0100
    0.0100    0.0100    0.0100    0.0100    0.0100    0.0100    0.0100    0.0100
    0.0100    0.0100    0.0100    0.0100    0.0100    0.0100    0.0100    0.0100
    0.0100    0.0100    0.0100    0.0100    0.0100    0.0100    0.0100    0.0100
    0.0100    0.0100    0.0100    0.0100    0.0100    0.0100    0.0100    0.0100
    0.0100    0.0100    0.0100    0.0100    0.0100    0.0100    0.0100    0.0100
    0.0100    0.0100    0.0100    0.0100    0.0100    0.0100    0.0100    0.0100
    0.0100    0.0100    0.0100    0.0100    0.0100    0.0100    0.0100    0.0100
    0.0100    0.0100    0.0100    0.0100    0.0100    0.0100    0.0100    0.0100
    0.0100    0.0100    0.0100    0.0100    0.0100    0.0100    0.0100    0.0100
    0.0100    0.0100    0.0100    0.0100    0.0100    0.0100    0.0100    0.0100
    0.0100    0.0100    0.0100    0.0100    0.0100    0.0100    0.0100    0.0100
    0.0100    0.0100    0.0100    0.0100    0.0100    0.0100    0.0100    0.0100
    0.0100    0.0100    0.0100    0.0100    0.0100    0.0100    0.0100    0.0100
    0.0100    0.0100    0.0100    0.0100    0.0100    0.0100    0.0100    0.0100
    0.0100    0.0100    0.0100    0.0100    0.0100    0.0100    0.0100    0.0100
    0.0100    0.0100    0.0100    0.0100    0.0100    0.0100    0.0100    0.0100
    0.0100    0.0100    0.0100    0.0100    0.0100    0.0100    0.0100    0.0100
    0.0100    0.0100    0.0100    0.0100    0.0100    0.0100    0.0100    0.0100
    0.0100    0.0100    0.0100    0.0100    0.0100    0.0100    0.0100    0.0100
    0.0100    0.0100    0.0100    0.0100    0.0100    0.0100    0.0100    0.0100
    0.0100    0.0100    0.0100    0.0100    0.0100    0.0100    0.0100    0.0100
    0.0100    0.0100    0.0100    0.0100    0.0100    0.0100    0.0100    0.0100
    0.0100    0.0100    0.0100    0.0100    0.0100    0.0100    0.0100    0.0100
    0.0100    0.0100    0.0100    0.0100    0.0100    0.0100    0.0100    0.0100
    0.0100    0.0100    0.0100    0.0100    0.0100    0.0100    0.0100    0.0100
    0.0100    0.0100    0.0100    0.0100    0.0100    0.0100    0.0100    0.0100
    0.0100    0.0100    0.0100    0.0100    0.0100    0.0100    0.0100    0.0100
    0.0100    0.0100    0.0100    0.0100    0.0100    0.0100    0.0100    0.0100
    0.0100    0.0100    0.0100    0.0100    0.0100    0.0100    0.0100    0.0100
    0.0100    0.0100    0.0100    0.0100    0.0100    0.0100    0.0100    0.0100
    0.0100    0.0100    0.0100    0.0100    0.0100    0.0100    0.0100    0.0100
    0.0100    0.0100    0.0100    0.0100    0.0100    0.0100    0.0100    0.0100
    0.0100    0.0100    0.0100    0.0100    0.0100    0.0100    0.0100    0.0100
    0.0100    0.0100    0.0100    0.0100    0.0100    0.0100    0.0100    0.0100
    0.0100    0.0100    0.0100    0.0100    0.0100    0.0100    0.0100    0.0100
    0.0100    0.0100    0.0100    0.0100    0.0100    0.0100    0.0100    0.0100
    0.0100    0.0100    0.0100    0.0100    0.0100    0.0100    0.0100    0.0100
    0.0100    0.0100    0.0100    0.0100    0.0100    0.0100    0.0100    0.0100
    0.0100    0.0100    0.0100    0.0100    0.0100    0.0100    0.0100    0.0100
    0.0100    0.0100    0.0100    0.0100    0.0100    0.0100    0.0100    0.0100
    0.0100    0.0100    0.0100    0.0100    0.0100    0.0100    0.0100    0.0100
    0.0100    0.0100    0.0100    0.0100    0.0100    0.0100    0.0100    0.0100
    0.0100    0.0100    0.0100    0.0100    0.0100    0.0100    0.0100    0.0100
    0.0100    0.0100    0.0100    0.0100    0.0100    0.0100    0.0100    0.0100
    0.0100    0.0100    0.0100    0.0100    0.0100    0.0100    0.0100    0.0100
    0.0100    0.0100    0.0100    0.0100    0.0100    0.0100    0.0100    0.0100
    0.0100    0.0100    0.0100    0.0100    0.0100    0.0100    0.0100    0.0100
    0.0100    0.0100    0.0100    0.0100    0.0100    0.0100    0.0100    0.0100
    0.0100    0.0100    0.0100    0.0100    0.0100    0.0100    0.0100    0.0100
    0.0100    0.0100    0.0100    0.0100    0.0100    0.0100    0.0100    0.0100
    0.0100    0.0100    0.0100    0.0100    0.0100    0.0100    0.0100    0.0100
    0.0100    0.0100    0.0100    0.0100    0.0100    0.0100    0.0100    0.0100
    0.0100    0.0100    0.0100    0.0100    0.0100    0.0100    0.0100    0.0100
    0.0100    0.0100    0.0100    0.0100    0.0100    0.0100    0.0100    0.0100
    0.0100    0.0100    0.0100    0.0100    0.0100    0.0100    0.0100    0.0100
    0.0100    0.0100    0.0100    0.0100    0.0100    0.0100    0.0100    0.0100
    0.0100    0.0100    0.0100    0.0100    0.0100    0.0100    0.0100    0.0100
    0.0100    0.0100    0.0100    0.0100    0.0100    0.0100    0.0100    0.0100
    0.0100    0.0100    0.0100    0.0100    0.0100    0.0100    0.0100    0.0100
    0.0100    0.0100    0.0100    0.0100    0.0100    0.0100    0.0100    0.0100
    0.0100    0.0100    0.0100    0.0100    0.0100    0.0100    0.0100    0.0100
    0.0100    0.0100    0.0100    0.0100    0.0100    0.0100    0.0100    0.0100
    0.0100    0.0100    0.0100    0.0100    0.0100    0.0100    0.0100    0.0100
    0.0100    0.0100    0.0100    0.0100    0.0100    0.0100    0.0100    0.0100
    0.0100    0.0100    0.0100    0.0100    0.0100    0.0100    0.0100    0.0100
    0.0100    0.0100    0.0100    0.0100    0.0100    0.0100    0.0100    0.0100
    0.0100    0.0100    0.0100    0.0100    0.0100    0.0100    0.0100    0.0100
    0.0100    0.0100    0.0100    0.0100    0.0100    0.0100    0.0100    0.0100
    0.0100    0.0100    0.0100    0.0100    0.0100    0.0100    0.0100    0.0100
    0.0100    0.0100    0.0100    0.0100    0.0100    0.0100    0.0100    0.0100
    0.0100    0.0100    0.0100    0.0100    0.0100    0.0100    0.0100    0.0100
    0.0100    0.0100    0.0100    0.0100    0.0100    0.0100    0.0100    0.0100
    0.0100    0.0100    0.0100    0.0100    0.0100    0.0100    0.0100    0.0100
    0.0100    0.0100    0.0100    0.0100    0.0100    0.0100    0.0100    0.0100
    0.0100    0.0100    0.0100    0.0100    0.0100    0.0100    0.0100    0.0100
    0.0100    0.0100    0.0100    0.0100    0.0100    0.0100    0.0100    0.0100
    0.0100    0.0100    0.0100    0.0100    0.0100    0.0100    0.0100    0.0100
    0.0100    0.0100    0.0100    0.0100    0.0100    0.0100    0.0100    0.0100
    0.0100    0.0100    0.0100    0.0100    0.0100    0.0100    0.0100    0.0100
    0.0100    0.0100    0.0100    0.0100    0.0100    0.0100    0.0100    0.0100
    0.0100    0.0100    0.0100    0.0100    0.0100    0.0100    0.0100    0.0100
    0.0100    0.0100    0.0100    0.0100    0.0100    0.0100    0.0100    0.0100
    0.0100    0.0100    0.0100    0.0100    0.0100    0.0100    0.0100    0.0100
    0.0100    0.0100    0.0100    0.0100    0.0100    0.0100    0.0100    0.0100
    0.0100    0.0100    0.0100    0.0100    0.0100    0.0100    0.0100    0.0100
    0.0100    0.0100    0.0100    0.0100    0.0100    0.0100    0.0100    0.0100
    0.0100    0.0100    0.0100    0.0100    0.0100    0.0100    0.0100    0.0100
    0.0100    0.0100    0.0100    0.0100    0.0100    0.0100    0.0100    0.0100
    0.0100    0.0100    0.0100    0.0100    0.0100    0.0100    0.0100    0.0100
    0.0100    0.0100    0.0100    0.0100    0.0100    0.0100    0.0100    0.0100
    0.0100    0.0100    0.0100    0.0100    0.0100    0.0100    0.0100    0.0100
    0.0100    0.0100    0.0100    0.0100    0.0100    0.0100    0.0100    0.0100
    0.0100    0.0100    0.0100    0.0100    0.0100    0.0100    0.0100    0.0100
    0.0100    0.0100    0.0100    0.0100    0.0100    0.0100    0.0100    0.0100
    0.0100    0.0100    0.0100    0.0100    0.0100    0.0100    0.0100    0.0100
    0.0100    0.0100    0.0100    0.0100    0.0100    0.0100    0.0100    0.0100
    0.0100    0.0100    0.0100    0.0100    0.0100    0.0100    0.0100    0.0100
    0.0100    0.0100    0.0100    0.0100    0.0100    0.0100    0.0100    0.0100
    0.0100    0.0100    0.0100    0.0100    0.0100    0.0100    0.0100    0.0100
    0.0100    0.0100    0.0100    0.0100    0.0100    0.0100    0.0100    0.0100
    0.0100    0.0100    0.0100    0.0100    0.0100    0.0100    0.0100    0.0100
    0.0100    0.0100    0.0100    0.0100    0.0100    0.0100    0.0100    0.0100
    0.0100    0.0100    0.0100    0.0100    0.0100    0.0100    0.0100    0.0100
    0.0100    0.0100    0.0100    0.0100    0.0100    0.0100    0.0100    0.0100
    0.0100    0.0100    0.0100    0.0100    0.0100    0.0100    0.0100    0.0100
    0.0100    0.0100    0.0100    0.0100    0.0100    0.0100    0.0100    0.0100
    0.0100    0.0100    0.0100    0.0100    0.0100    0.0100    0.0100    0.0100
    0.0100    0.0100    0.0100    0.0100    0.0100    0.0100    0.0100    0.0100
    0.0100    0.0100    0.0100    0.0100    0.0100    0.0100    0.0100    0.0100
    0.0100    0.0100    0.0100    0.0100    0.0100    0.0100    0.0100    0.0100
    0.0100    0.0100    0.0100    0.0100    0.0100    0.0100    0.0100    0.0100
    0.0100    0.0100    0.0100    0.0100    0.0100    0.0100    0.0100    0.0100
    0.0100    0.0100    0.0100    0.0100    0.0100    0.0100    0.0100    0.0100
    0.0100    0.0100    0.0100    0.0100    0.0100    0.0100    0.0100    0.0100
    0.0100    0.0100    0.0100    0.0100    0.0100    0.0100    0.0100    0.0100
    0.0100    0.0100    0.0100    0.0100    0.0100    0.0100    0.0100    0.0100
    0.0100    0.0100    0.0100    0.0100    0.0100    0.0100    0.0100    0.0100
    0.0100    0.0100    0.0100    0.0100    0.0100    0.0100    0.0100    0.0100
    0.0100    0.0100    0.0100    0.0100    0.0100    0.0100    0.0100    0.0100
    0.0100    0.0100    0.0100    0.0100    0.0100    0.0100    0.0100    0.0100
    0.0100    0.0100    0.0100    0.0100    0.0100    0.0100    0.0100    0.0100
    0.0100    0.0100    0.0100    0.0100    0.0100    0.0100    0.0100    0.0100
    0.0100    0.0100    0.0100    0.0100    0.0100    0.0100    0.0100    0.0100
    0.0100    0.0100    0.0100    0.0100    0.0100    0.0100    0.0100    0.0100
    0.0100    0.0100    0.0100    0.0100    0.0100    0.0100    0.0100    0.0100
    0.0100    0.0100    0.0100    0.0100    0.0100    0.0100    0.0100    0.0100
    0.0100    0.0100    0.0100    0.0100    0.0100    0.0100    0.0100    0.0100
    0.0100    0.0100    0.0100    0.0100    0.0100    0.0100    0.0100    0.0100
    0.0100    0.0100    0.0100    0.0100    0.0100    0.0100    0.0100    0.0100
    0.0100    0.0100    0.0100    0.0100    0.0100    0.0100    0.0100    0.0100
    0.0100    0.0100    0.0100    0.0100    0.0100    0.0100    0.0100    0.0100
    0.0100    0.0100    0.0100    0.0100    0.0100    0.0100    0.0100    0.0100
    0.0100    0.0100    0.0100    0.0100    0.0100    0.0100    0.0100    0.0100
    0.0100    0.0100    0.0100    0.0100    0.0100    0.0100    0.0100    0.0100
    0.0100    0.0100    0.0100    0.0100    0.0100    0.0100    0.0100    0.0100
    0.0100    0.0100    0.0100    0.0100    0.0100    0.0100    0.0100    0.0100
    0.0100    0.0100    0.0100    0.0100    0.0100    0.0100    0.0100    0.0100
    0.0100    0.0100    0.0100    0.0100    0.0100    0.0100    0.0100    0.0100
    0.0100    0.0100    0.0100    0.0100    0.0100    0.0100    0.0100    0.0100
    0.0100    0.0100    0.0100    0.0100    0.0100    0.0100    0.0100    0.0100
    0.0100    0.0100    0.0100    0.0100    0.0100    0.0100    0.0100    0.0100
    0.0100    0.0100    0.0100    0.0100    0.0100    0.0100    0.0100    0.0100
    0.0100    0.0100    0.0100    0.0100    0.0100    0.0100    0.0100    0.0100
    0.0100    0.0100    0.0100    0.0100    0.0100    0.0100    0.0100    0.0100
    0.0100    0.0100    0.0100    0.0100    0.0100    0.0100    0.0100    0.0100
    0.0100    0.0100    0.0100    0.0100    0.0100    0.0100    0.0100    0.0100
    0.0100    0.0100    0.0100    0.0100    0.0100    0.0100    0.0100    0.0100
    0.0100    0.0100    0.0100    0.0100    0.0100    0.0100    0.0100    0.0100
    0.0100    0.0100    0.0100    0.0100    0.0100    0.0100    0.0100    0.0100
    0.0100    0.0100    0.0100    0.0100    0.0100    0.0100    0.0100    0.0100
    0.0100    0.0100    0.0100    0.0100    0.0100    0.0100    0.0100    0.0100
    0.0100    0.0100    0.0100    0.0100    0.0100    0.0100    0.0100    0.0100
    0.0100    0.0100    0.0100    0.0100    0.0100    0.0100    0.0100    0.0100
    0.0100    0.0100    0.0100    0.0100    0.0100    0.0100    0.0100    0.0100
    0.0100    0.0100    0.0100    0.0100    0.0100    0.0100    0.0100    0.0100
    0.0100    0.0100    0.0100    0.0100    0.0100    0.0100    0.0100    0.0100
    0.0100    0.0100    0.0100    0.0100    0.0100    0.0100    0.0100    0.0100
    0.0100    0.0100    0.0100    0.0100    0.0100    0.0100    0.0100    0.0100
    0.0100    0.0100    0.0100    0.0100    0.0100    0.0100    0.0100    0.0100
    0.0100    0.0100    0.0100    0.0100    0.0100    0.0100    0.0100    0.0100
    0.0100    0.0100    0.0100    0.0100    0.0100    0.0100    0.0100    0.0100
    0.0100    0.0100    0.0100    0.0100    0.0100    0.0100    0.0100    0.0100
    0.0100    0.0100    0.0100    0.0100    0.0100    0.0100    0.0100    0.0100
    0.0100    0.0100    0.0100    0.0100    0.0100    0.0100    0.0100    0.0100
    0.0100    0.0100    0.0100    0.0100    0.0100    0.0100    0.0100    0.0100
    0.0100    0.0100    0.0100    0.0100    0.0100    0.0100    0.0100    0.0100
    0.0100    0.0100    0.0100    0.0100    0.0100    0.0100    0.0100    0.0100
    0.0100    0.0100    0.0100    0.0100    0.0100    0.0100    0.0100    0.0100
    0.0100    0.0100    0.0100    0.0100    0.0100    0.0100    0.0100    0.0100
    0.0100    0.0100    0.0100    0.0100    0.0100    0.0100    0.0100    0.0100
    0.0100    0.0100    0.0100    0.0100    0.0100    0.0100    0.0100    0.0100
    0.0100    0.0100    0.0100    0.0100    0.0100    0.0100    0.0100    0.0100
    0.0100    0.0100    0.0100    0.0100    0.0100    0.0100    0.0100    0.0100
    0.0100    0.0100    0.0100    0.0100    0.0100    0.0100    0.0100    0.0100
    0.0100    0.0100    0.0100    0.0100    0.0100    0.0100    0.0100    0.0100
    0.0100    0.0100    0.0100    0.0100    0.0100    0.0100    0.0100    0.0100
    0.0100    0.0100    0.0100    0.0100    0.0100    0.0100    0.0100    0.0100
    0.0100    0.0100    0.0100    0.0100    0.0100    0.0100    0.0100    0.0100
    0.0100    0.0100    0.0100    0.0100    0.0100    0.0100    0.0100    0.0100
    0.0100    0.0100    0.0100    0.0100    0.0100    0.0100    0.0100    0.0100
    0.0100    0.0100    0.0100    0.0100    0.0100    0.0100    0.0100    0.0100
    0.0100    0.0100    0.0100    0.0100    0.0100    0.0100    0.0100    0.0100
    0.0100    0.0100    0.0100    0.0100    0.0100    0.0100    0.0100    0.0100
    0.0100    0.0100    0.0100    0.0100    0.0100    0.0100    0.0100    0.0100
    0.0100    0.0100    0.0100    0.0100    0.0100    0.0100    0.0100    0.0100
    0.0100    0.0100    0.0100    0.0100    0.0100    0.0100    0.0100    0.0100
    0.0100    0.0100    0.0100    0.0100    0.0100    0.0100    0.0100    0.0100
    0.0100    0.0100    0.0100    0.0100    0.0100    0.0100    0.0100    0.0100
    0.0100    0.0100    0.0100    0.0100    0.0100    0.0100    0.0100    0.0100
    0.0100    0.0100    0.0100    0.0100    0.0100    0.0100    0.0100    0.0100
    0.0100    0.0100    0.0100    0.0100    0.0100    0.0100    0.0100    0.0100
    0.0100    0.0100    0.0100    0.0100    0.0100    0.0100    0.0100    0.0100
    0.0100    0.0100    0.0100    0.0100    0.0100    0.0100    0.0100    0.0100
    0.0100    0.0100    0.0100    0.0100    0.0100    0.0100    0.0100    0.0100
    0.0100    0.0100    0.0100    0.0100    0.0100    0.0100    0.0100    0.0100
    0.0100    0.0100    0.0100    0.0100    0.0100    0.0100    0.0100    0.0100
    0.0100    0.0100    0.0100    0.0100    0.0100    0.0100    0.0100    0.0100
    0.0100    0.0100    0.0100    0.0100    0.0100    0.0100    0.0100    0.0100
    0.0100    0.0100    0.0100    0.0100    0.0100    0.0100    0.0100    0.0100
    0.0100    0.0100    0.0100    0.0100    0.0100    0.0100    0.0100    0.0100
    0.0100    0.0100    0.0100    0.0100    0.0100    0.0100    0.0100    0.0100
    0.0100    0.0100    0.0100    0.0100    0.0100    0.0100    0.0100    0.0100
    0.0100    0.0100    0.0100    0.0100    0.0100    0.0100    0.0100    0.0100
    0.0100    0.0100    0.0100    0.0100    0.0100    0.0100    0.0100    0.0100
    0.0100    0.0100    0.0100    0.0100    0.0100    0.0100    0.0100    0.0100
    0.0100    0.0100    0.0100    0.0100    0.0100    0.0100    0.0100    0.0100
    0.0100    0.0100    0.0100    0.0100    0.0100    0.0100    0.0100    0.0100
    0.0100    0.0100    0.0100    0.0100    0.0100    0.0100    0.0100    0.0100
    0.0100    0.0100    0.0100    0.0100    0.0100    0.0100    0.0100    0.0100
    0.0100    0.0100    0.0100    0.0100    0.0100    0.0100    0.0100    0.0100
    0.0100    0.0100    0.0100    0.0100    0.0100    0.0100    0.0100    0.0100
    0.0100    0.0100    0.0100    0.0100    0.0100    0.0100    0.0100    0.0100
    0.0100    0.0100    0.0100    0.0100    0.0100    0.0100    0.0100    0.0100
    0.0100    0.0100    0.0100    0.0100    0.0100    0.0100    0.0100    0.0100
    0.0100    0.0100    0.0100    0.0100    0.0100    0.0100    0.0100    0.0100
    0.0100    0.0100    0.0100    0.0100    0.0100    0.0100    0.0100    0.0100
    0.0100    0.0100    0.0100    0.0100    0.0100    0.0100    0.0100    0.0100
    0.0100    0.0100    0.0100    0.0100    0.0100    0.0100    0.0100    0.0100
    0.0100    0.0100    0.0100    0.0100    0.0100    0.0100    0.0100    0.0100
    0.0100    0.0100    0.0100    0.0100    0.0100    0.0100    0.0100    0.0100
    0.0100    0.0100    0.0100    0.0100    0.0100    0.0100    0.0100    0.0100
    0.0100    0.0100    0.0100    0.0100    0.0100    0.0100    0.0100    0.0100
    0.0100    0.0100    0.0100    0.0100    0.0100    0.0100    0.0100    0.0100
    0.0100    0.0100    0.0100    0.0100    0.0100    0.0100    0.0100    0.0100
    0.0100    0.0100    0.0100    0.0100    0.0100    0.0100    0.0100    0.0100
    0.0100    0.0100    0.0100    0.0100    0.0100    0.0100    0.0100    0.0100
    0.0100    0.0100    0.0100    0.0100    0.0100    0.0100    0.0100    0.0100
    0.0100    0.0100    0.0100    0.0100    0.0100    0.0100    0.0100    0.0100
    0.0100    0.0100    0.0100    0.0100    0.0100    0.0100    0.0100    0.0100
    0.0100    0.0100    0.0100    0.0100    0.0100    0.0100    0.0100    0.0100
    0.0100    0.0100    0.0100    0.0100    0.0100    0.0100    0.0100    0.0100
    0.0100    0.0100    0.0100    0.0100    0.0100    0.0100    0.0100    0.0100
    0.0100    0.0100    0.0100    0.0100    0.0100    0.0100    0.0100    0.0100
    0.0100    0.0100    0.0100    0.0100    0.0100    0.0100    0.0100    0.0100
    0.0100    0.0100    0.0100    0.0100    0.0100    0.0100    0.0100    0.0100
    0.0100    0.0100    0.0100    0.0100    0.0100    0.0100    0.0100    0.0100
    0.0100    0.0100    0.0100    0.0100    0.0100    0.0100    0.0100    0.0100
    0.0100    0.0100    0.0100    0.0100    0.0100    0.0100    0.0100    0.0100
    0.0100    0.0100    0.0100    0.0100    0.0100    0.0100    0.0100    0.0100
    0.0100    0.0100    0.0100    0.0100    0.0100    0.0100    0.0100    0.0100
    0.0100    0.0100    0.0100    0.0100    0.0100    0.0100    0.0100    0.0100
    0.0100    0.0100    0.0100    0.0100    0.0100    0.0100    0.0100    0.0100
    0.0100    0.0100    0.0100    0.0100    0.0100    0.0100    0.0100    0.0100
    0.0100    0.0100    0.0100    0.0100    0.0100    0.0100    0.0100    0.0100
    0.0100    0.0100    0.0100    0.0100    0.0100    0.0100    0.0100    0.0100
    0.0100    0.0100    0.0100    0.0100    0.0100    0.0100    0.0100    0.0100
    0.0100    0.0100    0.0100    0.0100    0.0100    0.0100    0.0100    0.0100
    0.0100    0.0100    0.0100    0.0100    0.0100    0.0100    0.0100    0.0100
    0.0100    0.0100    0.0100    0.0100    0.0100    0.0100    0.0100    0.0100
    0.0100    0.0100    0.0100    0.0100    0.0100    0.0100    0.0100    0.0100
    0.0100    0.0100    0.0100    0.0100    0.0100    0.0100    0.0100    0.0100
    0.0100    0.0100    0.0100    0.0100    0.0100    0.0100    0.0100    0.0100
    0.0100    0.0100    0.0100    0.0100    0.0100    0.0100    0.0100    0.0100
    0.0100    0.0100    0.0100    0.0100    0.0100    0.0100    0.0100    0.0100
    0.0100    0.0100    0.0100    0.0100    0.0100    0.0100    0.0100    0.0100
    0.0100    0.0100    0.0100    0.0100    0.0100    0.0100    0.0100    0.0100
    0.0100    0.0100    0.0100    0.0100    0.0100    0.0100    0.0100    0.0100
    0.0100    0.0100    0.0100    0.0100    0.0100    0.0100    0.0100    0.0100
    0.0100    0.0100    0.0100    0.0100    0.0100    0.0100    0.0100    0.0100
    0.0100    0.0100    0.0100    0.0100    0.0100    0.0100    0.0100    0.0100
    0.0100    0.0100    0.0100    0.0100    0.0100    0.0100    0.0100    0.0100
    0.0100    0.0100    0.0100    0.0100    0.0100    0.0100    0.0100    0.0100
    0.0100    0.0100    0.0100    0.0100    0.0100    0.0100    0.0100    0.0100
    0.0100    0.0100    0.0100    0.0100    0.0100    0.0100    0.0100    0.0100
    0.0100    0.0100    0.0100    0.0100    0.0100    0.0100    0.0100    0.0100
    0.0100    0.0100    0.0100    0.0100    0.0100    0.0100    0.0100    0.0100
    0.0100    0.0100    0.0100    0.0100    0.0100    0.0100    0.0100    0.0100
    0.0100    0.0100    0.0100    0.0100    0.0100    0.0100    0.0100    0.0100
    0.0100    0.0100    0.0100    0.0100    0.0100    0.0100    0.0100    0.0100
    0.0100    0.0100    0.0100    0.0100    0.0100    0.0100    0.0100    0.0100
    0.0100    0.0100    0.0100    0.0100    0.0100    0.0100    0.0100    0.0100
    0.0100    0.0100    0.0100    0.0100    0.0100    0.0100    0.0100    0.0100
    0.0100    0.0100    0.0100    0.0100    0.0100    0.0100    0.0100    0.0100
    0.0100    0.0100    0.0100    0.0100    0.0100    0.0100    0.0100    0.0100
    0.0100    0.0100    0.0100    0.0100    0.0100    0.0100    0.0100    0.0100
    0.0100    0.0100    0.0100    0.0100    0.0100    0.0100    0.0100    0.0100
    0.0100    0.0100    0.0100    0.0100    0.0100    0.0100    0.0100    0.0100
    0.0100    0.0100    0.0100    0.0100    0.0100    0.0100    0.0100    0.0100
    0.0100    0.0100    0.0100    0.0100    0.0100    0.0100    0.0100    0.0100
    0.0100    0.0100    0.0100    0.0100    0.0100    0.0100    0.0100    0.0100
    0.0100    0.0100    0.0100    0.0100    0.0100    0.0100    0.0100    0.0100
    0.0100    0.0100    0.0100    0.0100    0.0100    0.0100    0.0100    0.0100
    0.0100    0.0100    0.0100    0.0100    0.0100    0.0100    0.0100    0.0100
    0.0100    0.0100    0.0100    0.0100    0.0100    0.0100    0.0100    0.0100
    0.0100    0.0100    0.0100    0.0100    0.0100    0.0100    0.0100    0.0100
    0.0100    0.0100    0.0100    0.0100    0.0100    0.0100    0.0100    0.0100
    0.0100    0.0100    0.0100    0.0100    0.0100    0.0100    0.0100    0.0100
    0.0100    0.0100    0.0100    0.0100    0.0100    0.0100    0.0100    0.0100
    0.0100    0.0100    0.0100    0.0100    0.0100    0.0100    0.0100    0.0100
    0.0100    0.0100    0.0100    0.0100    0.0100    0.0100    0.0100    0.0100
    0.0100    0.0100    0.0100    0.0100    0.0100    0.0100    0.0100    0.0100
    0.0100    0.0100    0.0100    0.0100    0.0100    0.0100    0.0100    0.0100
    0.0100    0.0100    0.0100    0.0100    0.0100    0.0100    0.0100    0.0100
    0.0100    0.0100    0.0100    0.0100    0.0100    0.0100    0.0100    0.0100
    0.0100    0.0100    0.0100    0.0100    0.0100    0.0100    0.0100    0.0100
    0.0100    0.0100    0.0100    0.0100    0.0100    0.0100    0.0100    0.0100
    0.0100    0.0100    0.0100    0.0100    0.0100    0.0100    0.0100    0.0100
    0.0100    0.0100    0.0100    0.0100    0.0100    0.0100    0.0100    0.0100
    0.0100    0.0100    0.0100    0.0100    0.0100    0.0100    0.0100    0.0100
    0.0100    0.0100    0.0100    0.0100    0.0100    0.0100    0.0100    0.0100
    0.0100    0.0100    0.0100    0.0100    0.0100    0.0100    0.0100    0.0100
    0.0100    0.0100    0.0100    0.0100    0.0100    0.0100    0.0100    0.0100
    0.0100    0.0100    0.0100    0.0100    0.0100    0.0100    0.0100    0.0100
    0.0100    0.0100    0.0100    0.0100    0.0100    0.0100    0.0100    0.0100
    0.0100    0.0100    0.0100    0.0100    0.0100    0.0100    0.0100    0.0100
    0.0100    0.0100    0.0100    0.0100    0.0100    0.0100    0.0100    0.0100
    0.0100    0.0100    0.0100    0.0100    0.0100    0.0100    0.0100    0.0100
    0.0100    0.0100    0.0100    0.0100    0.0100    0.0100    0.0100    0.0100
    0.0100    0.0100    0.0100    0.0100    0.0100    0.0100    0.0100    0.0100
    0.0100    0.0100    0.0100    0.0100    0.0100    0.0100    0.0100    0.0100
    0.0100    0.0100    0.0100    0.0100    0.0100    0.0100    0.0100    0.0100
    0.0100    0.0100    0.0100    0.0100    0.0100    0.0100    0.0100    0.0100
    0.0100    0.0100    0.0100    0.0100    0.0100    0.0100    0.0100    0.0100
    0.0100    0.0100    0.0100    0.0100    0.0100    0.0100    0.0100    0.0100
    0.0100    0.0100    0.0100    0.0100    0.0100    0.0100    0.0100    0.0100
    0.0100    0.0100    0.0100    0.0100    0.0100    0.0100    0.0100    0.0100
    0.0100    0.0100    0.0100    0.0100    0.0100    0.0100    0.0100    0.0100
    0.0100    0.0100    0.0100    0.0100    0.0100    0.0100    0.0100    0.0100
    0.0100    0.0100    0.0100    0.0100    0.0100    0.0100    0.0100    0.0100
    0.0100    0.0100    0.0100    0.0100    0.0100    0.0100    0.0100    0.0100
    0.0100    0.0100    0.0100    0.0100    0.0100    0.0100    0.0100    0.0100
    0.0100    0.0100    0.0100    0.0100    0.0100    0.0100    0.0100    0.0100
    0.0100    0.0100    0.0100    0.0100    0.0100    0.0100    0.0100    0.0100
    0.0100    0.0100    0.0100    0.0100    0.0100    0.0100    0.0100    0.0100
    0.0100    0.0100    0.0100    0.0100    0.0100    0.0100    0.0100    0.0100
    0.0100    0.0100    0.0100    0.0100    0.0100    0.0100    0.0100    0.0100
    0.0100    0.0100    0.0100    0.0100    0.0100    0.0100    0.0100    0.0100
    0.0100    0.0100    0.0100    0.0100    0.0100    0.0100    0.0100    0.0100
    0.0100    0.0100    0.0100    0.0100    0.0100    0.0100    0.0100    0.0100
    0.0100    0.0100    0.0100    0.0100    0.0100    0.0100    0.0100    0.0100
    0.0100    0.0100    0.0100    0.0100    0.0100    0.0100    0.0100    0.0100
    0.0100    0.0100    0.0100    0.0100    0.0100    0.0100    0.0100    0.0100
    0.0100    0.0100    0.0100    0.0100    0.0100    0.0100    0.0100    0.0100
    0.0100    0.0100    0.0100    0.0100    0.0100    0.0100    0.0100    0.0100
    0.0100    0.0100    0.0100    0.0100    0.0100    0.0100    0.0100    0.0100
    0.0100    0.0100    0.0100    0.0100    0.0100    0.0100    0.0100    0.0100
    0.0100    0.0100    0.0100    0.0100    0.0100    0.0100    0.0100    0.0100
    0.0100    0.0100    0.0100    0.0100    0.0100    0.0100    0.0100    0.0100
    0.0100    0.0100    0.0100    0.0100    0.0100    0.0100    0.0100    0.0100
    0.0100    0.0100    0.0100    0.0100    0.0100    0.0100    0.0100    0.0100
    0.0100    0.0100    0.0100    0.0100    0.0100    0.0100    0.0100    0.0100
    0.0100    0.0100    0.0100    0.0100    0.0100    0.0100    0.0100    0.0100
    0.0100    0.0100    0.0100    0.0100    0.0100    0.0100    0.0100    0.0100
    0.0100    0.0100    0.0100    0.0100    0.0100    0.0100    0.0100    0.0100
    0.0100    0.0100    0.0100    0.0100    0.0100    0.0100    0.0100    0.0100
    0.0100    0.0100    0.0100    0.0100    0.0100    0.0100    0.0100    0.0100
    0.0100    0.0100    0.0100    0.0100    0.0100    0.0100    0.0100    0.0100
    0.0100    0.0100    0.0100    0.0100    0.0100    0.0100    0.0100    0.0100
    0.0100    0.0100    0.0100    0.0100    0.0100    0.0100    0.0100    0.0100
    0.0100    0.0100    0.0100    0.0100    0.0100    0.0100    0.0100    0.0100
    0.0100    0.0100    0.0100    0.0100    0.0100    0.0100    0.0100    0.0100
    0.0100    0.0100    0.0100    0.0100    0.0100    0.0100    0.0100    0.0100
    0.0100    0.0100    0.0100    0.0100    0.0100    0.0100    0.0100    0.0100
    0.0100    0.0100    0.0100    0.0100    0.0100    0.0100    0.0100    0.0100
    0.0100    0.0100    0.0100    0.0100    0.0100    0.0100    0.0100    0.0100
    0.0100    0.0100    0.0100    0.0100    0.0100    0.0100    0.0100    0.0100
    0.0100    0.0100    0.0100    0.0100    0.0100    0.0100    0.0100    0.0100
    0.0100    0.0100    0.0100    0.0100    0.0100    0.0100    0.0100    0.0100
    0.0100    0.0100    0.0100    0.0100    0.0100    0.0100    0.0100    0.0100
    0.0100    0.0100    0.0100    0.0100    0.0100    0.0100    0.0100    0.0100
    0.0100    0.0100    0.0100    0.0100    0.0100    0.0100    0.0100    0.0100
    0.0100    0.0100    0.0100    0.0100    0.0100    0.0100    0.0100    0.0100
    0.0100    0.0100    0.0100    0.0100    0.0100    0.0100    0.0100    0.0100
    0.0100    0.0100    0.0100    0.0100    0.0100    0.0100    0.0100    0.0100
    0.0100    0.0100    0.0100    0.0100    0.0100    0.0100    0.0100    0.0100
    0.0100    0.0100    0.0100    0.0100    0.0100    0.0100    0.0100    0.0100
    0.0100    0.0100    0.0100    0.0100    0.0100    0.0100    0.0100    0.0100
    0.0100    0.0100    0.0100    0.0100    0.0100    0.0100    0.0100    0.0100
    0.0100    0.0100    0.0100    0.0100    0.0100    0.0100    0.0100    0.0100
    0.0100    0.0100    0.0100    0.0100    0.0100    0.0100    0.0100    0.0100
    0.0100    0.0100    0.0100    0.0100    0.0100    0.0100    0.0100    0.0100
    0.0100    0.0100    0.0100    0.0100    0.0100    0.0100    0.0100    0.0100
    0.0100    0.0100    0.0100    0.0100    0.0100    0.0100    0.0100    0.0100
    0.0100    0.0100    0.0100    0.0100    0.0100    0.0100    0.0100    0.0100
    0.0100    0.0100    0.0100    0.0100    0.0100    0.0100    0.0100    0.0100
    0.0100    0.0100    0.0100    0.0100    0.0100    0.0100    0.0100    0.0100
    0.0100    0.0100    0.0100    0.0100    0.0100    0.0100    0.0100    0.0100
    0.0100    0.0100    0.0100    0.0100    0.0100    0.0100    0.0100    0.0100
    0.0100    0.0100    0.0100    0.0100    0.0100    0.0100    0.0100    0.0100
    0.0100    0.0100    0.0100    0.0100    0.0100    0.0100    0.0100    0.0100
    0.0100    0.0100    0.0100    0.0100    0.0100    0.0100    0.0100    0.0100
    0.0100    0.0100    0.0100    0.0100    0.0100    0.0100    0.0100    0.0100
    0.0100    0.0100    0.0100    0.0100    0.0100    0.0100    0.0100    0.0100
    0.0100    0.0100    0.0100    0.0100    0.0100    0.0100    0.0100    0.0100
    0.0100    0.0100    0.0100    0.0100    0.0100    0.0100    0.0100    0.0100
    0.0100    0.0100    0.0100    0.0100    0.0100    0.0100    0.0100    0.0100
    0.0100    0.0100    0.0100    0.0100    0.0100    0.0100    0.0100    0.0100
    0.0100    0.0100    0.0100    0.0100    0.0100    0.0100    0.0100    0.0100
    0.0100    0.0100    0.0100    0.0100    0.0100    0.0100    0.0100    0.0100
    0.0100    0.0100    0.0100    0.0100    0.0100    0.0100    0.0100    0.0100
    0.0100    0.0100    0.0100    0.0100    0.0100    0.0100    0.0100    0.0100
    0.0100    0.0100    0.0100    0.0100    0.0100    0.0100    0.0100    0.0100
    0.0100    0.0100    0.0100    0.0100    0.0100    0.0100    0.0100    0.0100
    0.0100    0.0100    0.0100    0.0100    0.0100    0.0100    0.0100    0.0100
    0.0100    0.0100    0.0100    0.0100    0.0100    0.0100    0.0100    0.0100
    0.0100    0.0100    0.0100    0.0100    0.0100    0.0100    0.0100    0.0100
    0.0100    0.0100    0.0100    0.0100    0.0100    0.0100    0.0100    0.0100
    0.0100    0.0100    0.0100    0.0100    0.0100    0.0100    0.0100    0.0100
    0.0100    0.0100    0.0100    0.0100    0.0100    0.0100    0.0100    0.0100
    0.0100    0.0100    0.0100    0.0100    0.0100    0.0100    0.0100    0.0100
    0.0100    0.0100    0.0100    0.0100    0.0100    0.0100    0.0100    0.0100
    0.0100    0.0100    0.0100    0.0100    0.0100    0.0100    0.0100    0.0100
    0.0100    0.0100    0.0100    0.0100    0.0100    0.0100    0.0100    0.0100
    0.0100    0.0100    0.0100    0.0100    0.0100    0.0100    0.0100    0.0100
    0.0100    0.0100    0.0100    0.0100    0.0100    0.0100    0.0100    0.0100
    0.0100    0.0100    0.0100    0.0100    0.0100    0.0100    0.0100    0.0100
    0.0100    0.0100    0.0100    0.0100    0.0100    0.0100    0.0100    0.0100
    0.0100    0.0100    0.0100    0.0100    0.0100    0.0100    0.0100    0.0100
    0.0100    0.0100    0.0100    0.0100    0.0100    0.0100    0.0100    0.0100
    0.0100    0.0100    0.0100    0.0100    0.0100    0.0100    0.0100    0.0100
    0.0100    0.0100    0.0100    0.0100    0.0100    0.0100    0.0100    0.0100
    0.0100    0.0100    0.0100    0.0100    0.0100    0.0100    0.0100    0.0100
    0.0100    0.0100    0.0100    0.0100    0.0100    0.0100    0.0100    0.0100
    0.0100    0.0100    0.0100    0.0100    0.0100    0.0100    0.0100    0.0100
    0.0100    0.0100    0.0100    0.0100    0.0100    0.0100    0.0100    0.0100
    0.0100    0.0100    0.0100    0.0100    0.0100    0.0100    0.0100    0.0100
    0.0100    0.0100    0.0100    0.0100    0.0100    0.0100    0.0100    0.0100
    0.0100    0.0100    0.0100    0.0100    0.0100    0.0100    0.0100    0.0100
    0.0100    0.0100    0.0100    0.0100    0.0100    0.0100    0.0100    0.0100
    0.0100    0.0100    0.0100    0.0100    0.0100    0.0100    0.0100    0.0100
    0.0100    0.0100    0.0100    0.0100    0.0100    0.0100    0.0100    0.0100
    0.0100    0.0100    0.0100    0.0100    0.0100    0.0100    0.0100    0.0100
    0.0100    0.0100    0.0100    0.0100    0.0100    0.0100    0.0100    0.0100
    0.0100    0.0100    0.0100    0.0100    0.0100    0.0100    0.0100    0.0100
    0.0100    0.0100    0.0100    0.0100    0.0100    0.0100    0.0100    0.0100
    0.0100    0.0100    0.0100    0.0100    0.0100    0.0100    0.0100    0.0100
    0.0100    0.0100    0.0100    0.0100    0.0100    0.0100    0.0100    0.0100
    0.0100    0.0100    0.0100    0.0100    0.0100    0.0100    0.0100    0.0100
    0.0100    0.0100    0.0100    0.0100    0.0100    0.0100    0.0100    0.0100
    0.0100    0.0100    0.0100    0.0100    0.0100    0.0100    0.0100    0.0100
    0.0100    0.0100    0.0100    0.0100    0.0100    0.0100    0.0100    0.0100
    0.0100    0.0100    0.0100    0.0100    0.0100    0.0100    0.0100    0.0100
    0.0100    0.0100    0.0100    0.0100    0.0100    0.0100    0.0100    0.0100
    0.0100    0.0100    0.0100    0.0100    0.0100    0.0100    0.0100    0.0100
    0.0100    0.0100    0.0100    0.0100    0.0100    0.0100    0.0100    0.0100
    0.0100    0.0100    0.0100    0.0100    0.0100    0.0100    0.0100    0.0100
    0.0100    0.0100    0.0100    0.0100    0.0100    0.0100    0.0100    0.0100
    0.0100    0.0100    0.0100    0.0100    0.0100    0.0100    0.0100    0.0100
    0.0100    0.0100    0.0100    0.0100    0.0100    0.0100    0.0100    0.0100
    0.0100    0.0100    0.0100    0.0100    0.0100    0.0100    0.0100    0.0100
    0.0100    0.0100    0.0100    0.0100    0.0100    0.0100    0.0100    0.0100
    0.0100    0.0100    0.0100    0.0100    0.0100    0.0100    0.0100    0.0100
    0.0100    0.0100    0.0100    0.0100    0.0100    0.0100    0.0100    0.0100
    0.0100    0.0100    0.0100    0.0100    0.0100    0.0100    0.0100    0.0100
    0.0100    0.0100    0.0100    0.0100    0.0100    0.0100    0.0100    0.0100
    0.0100    0.0100    0.0100    0.0100    0.0100    0.0100    0.0100    0.0100
    0.0100    0.0100    0.0100    0.0100    0.0100    0.0100    0.0100    0.0100
    0.0100    0.0100    0.0100    0.0100    0.0100    0.0100    0.0100    0.0100
    0.0100    0.0100    0.0100    0.0100    0.0100    0.0100    0.0100    0.0100
    0.0100    0.0100    0.0100    0.0100    0.0100    0.0100    0.0100    0.0100
    0.0100    0.0100    0.0100    0.0100    0.0100    0.0100    0.0100    0.0100
    0.0100    0.0100    0.0100    0.0100    0.0100    0.0100    0.0100    0.0100
    0.0100    0.0100    0.0100    0.0100    0.0100    0.0100    0.0100    0.0100
    0.0100    0.0100    0.0100    0.0100    0.0100    0.0100    0.0100    0.0100
    0.0100    0.0100    0.0100    0.0100    0.0100    0.0100    0.0100    0.0100
    0.0100    0.0100    0.0100    0.0100    0.0100    0.0100    0.0100    0.0100
    0.0100    0.0100    0.0100    0.0100    0.0100    0.0100    0.0100    0.0100
    0.0100    0.0100    0.0100    0.0100    0.0100    0.0100    0.0100    0.0100
    0.0100    0.0100    0.0100    0.0100    0.0100    0.0100    0.0100    0.0100
    0.0100    0.0100    0.0100    0.0100    0.0100    0.0100    0.0100    0.0100
    0.0100    0.0100    0.0100    0.0100    0.0100    0.0100    0.0100    0.0100
    0.0100    0.0100    0.0100    0.0100    0.0100    0.0100    0.0100    0.0100
    0.0100    0.0100    0.0100    0.0100    0.0100    0.0100    0.0100    0.0100
    0.0100    0.0100    0.0100    0.0100    0.0100    0.0100    0.0100    0.0100
    0.0100    0.0100    0.0100    0.0100    0.0100    0.0100    0.0100    0.0100
    0.0100    0.0100    0.0100    0.0100    0.0100    0.0100    0.0100    0.0100
    0.0100    0.0100    0.0100    0.0100    0.0100    0.0100    0.0100    0.0100
    0.0100    0.0100    0.0100    0.0100    0.0100    0.0100    0.0100    0.0100
    0.0100    0.0100    0.0100    0.0100    0.0100    0.0100    0.0100    0.0100
    0.0100    0.0100    0.0100    0.0100    0.0100    0.0100    0.0100    0.0100
    0.0100    0.0100    0.0100    0.0100    0.0100    0.0100    0.0100    0.0100
    0.0100    0.0100    0.0100    0.0100    0.0100    0.0100    0.0100    0.0100
    0.0100    0.0100    0.0100    0.0100    0.0100    0.0100    0.0100    0.0100
    0.0100    0.0100    0.0100    0.0100    0.0100    0.0100    0.0100    0.0100
    0.0100    0.0100    0.0100    0.0100    0.0100    0.0100    0.0100    0.0100
    0.0100    0.0100    0.0100    0.0100    0.0100    0.0100    0.0100    0.0100
    0.0100    0.0100    0.0100    0.0100    0.0100    0.0100    0.0100    0.0100
    0.0100    0.0100    0.0100    0.0100    0.0100    0.0100    0.0100    0.0100
    0.0100    0.0100    0.0100    0.0100    0.0100    0.0100    0.0100    0.0100
    0.0100    0.0100    0.0100    0.0100    0.0100    0.0100    0.0100    0.0100
    0.0100    0.0100    0.0100    0.0100    0.0100    0.0100    0.0100    0.0100
    0.0100    0.0100    0.0100    0.0100    0.0100    0.0100    0.0100    0.0100
    0.0100    0.0100    0.0100    0.0100    0.0100    0.0100    0.0100    0.0100
    0.0100    0.0100    0.0100    0.0100    0.0100    0.0100    0.0100    0.0100
    0.0100    0.0100    0.0100    0.0100    0.0100    0.0100    0.0100    0.0100
    0.0100    0.0100    0.0100    0.0100    0.0100    0.0100    0.0100    0.0100
    0.0100    0.0100    0.0100    0.0100    0.0100    0.0100    0.0100    0.0100
    0.0100    0.0100    0.0100    0.0100    0.0100    0.0100    0.0100    0.0100
    0.0100    0.0100    0.0100    0.0100    0.0100    0.0100    0.0100    0.0100
    0.0100    0.0100    0.0100    0.0100    0.0100    0.0100    0.0100    0.0100
    0.0100    0.0100    0.0100    0.0100    0.0100    0.0100    0.0100    0.0100
    0.0100    0.0100    0.0100    0.0100    0.0100    0.0100    0.0100    0.0100
    0.0100    0.0100    0.0100    0.0100    0.0100    0.0100    0.0100    0.0100
    0.0100    0.0100    0.0100    0.0100    0.0100    0.0100    0.0100    0.0100
    0.0100    0.0100    0.0100    0.0100    0.0100    0.0100    0.0100    0.0100
    0.0100    0.0100    0.0100    0.0100    0.0100    0.0100    0.0100    0.0100
    0.0100    0.0100    0.0100    0.0100    0.0100    0.0100    0.0100    0.0100
    0.0100    0.0100    0.0100    0.0100    0.0100    0.0100    0.0100    0.0100
    0.0100    0.0100    0.0100    0.0100    0.0100    0.0100    0.0100    0.0100
    0.0100    0.0100    0.0100    0.0100    0.0100    0.0100    0.0100    0.0100
    0.0100    0.0100    0.0100    0.0100    0.0100    0.0100    0.0100    0.0100
    0.0100    0.0100    0.0100    0.0100    0.0100    0.0100    0.0100    0.0100
    0.0100    0.0100    0.0100    0.0100    0.0100    0.0100    0.0100    0.0100
    0.0100    0.0100    0.0100    0.0100    0.0100    0.0100    0.0100    0.0100
    0.0100    0.0100    0.0100    0.0100    0.0100    0.0100    0.0100    0.0100
    0.0100    0.0100    0.0100    0.0100    0.0100    0.0100    0.0100    0.0100
    0.0100    0.0100    0.0100    0.0100    0.0100    0.0100    0.0100    0.0100
    0.0100    0.0100    0.0100    0.0100    0.0100    0.0100    0.0100    0.0100
    0.0100    0.0100    0.0100    0.0100    0.0100    0.0100    0.0100    0.0100
    0.0100    0.0100    0.0100    0.0100    0.0100    0.0100    0.0100    0.0100
    0.0100    0.0100    0.0100    0.0100    0.0100    0.0100    0.0100    0.0100
    0.0100    0.0100    0.0100    0.0100    0.0100    0.0100    0.0100    0.0100
    0.0100    0.0100    0.0100    0.0100    0.0100    0.0100    0.0100    0.0100
    0.0100    0.0100    0.0100    0.0100    0.0100    0.0100    0.0100    0.0100
    0.0100    0.0100    0.0100    0.0100    0.0100    0.0100    0.0100    0.0100
    0.0100    0.0100    0.0100    0.0100    0.0100    0.0100    0.0100    0.0100
    0.0100    0.0100    0.0100    0.0100    0.0100    0.0100    0.0100    0.0100
    0.0100    0.0100    0.0100    0.0100    0.0100    0.0100    0.0100    0.0100
    0.0100    0.0100    0.0100    0.0100    0.0100    0.0100    0.0100    0.0100
    0.0100    0.0100    0.0100    0.0100    0.0100    0.0100    0.0100    0.0100
    0.0100    0.0100    0.0100    0.0100    0.0100    0.0100    0.0100    0.0100
    0.0100    0.0100    0.0100    0.0100    0.0100    0.0100    0.0100    0.0100
    0.0100    0.0100    0.0100    0.0100    0.0100    0.0100    0.0100    0.0100
    0.0100    0.0100    0.0100    0.0100    0.0100    0.0100    0.0100    0.0100
    0.0100    0.0100    0.0100    0.0100    0.0100    0.0100    0.0100    0.0100
    0.0100    0.0100    0.0100    0.0100    0.0100    0.0100    0.0100    0.0100
    0.0100    0.0100    0.0100    0.0100    0.0100    0.0100    0.0100    0.0100
    0.0100    0.0100    0.0100    0.0100    0.0100    0.0100    0.0100    0.0100
    0.0100    0.0100    0.0100    0.0100    0.0100    0.0100    0.0100    0.0100
    0.0100    0.0100    0.0100    0.0100    0.0100    0.0100    0.0100    0.0100
    0.0100    0.0100    0.0100    0.0100    0.0100    0.0100    0.0100    0.0100
    0.0100    0.0100    0.0100    0.0100    0.0100    0.0100    0.0100    0.0100
    0.0100    0.0100    0.0100    0.0100    0.0100    0.0100    0.0100    0.0100
    0.0100    0.0100    0.0100    0.0100    0.0100    0.0100    0.0100    0.0100
    0.0100    0.0100    0.0100    0.0100    0.0100    0.0100    0.0100    0.0100
    0.0100    0.0100    0.0100    0.0100    0.0100    0.0100    0.0100    0.0100
    0.0100    0.0100    0.0100    0.0100    0.0100    0.0100    0.0100    0.0100
    0.0100    0.0100    0.0100    0.0100    0.0100    0.0100    0.0100    0.0100
    0.0100    0.0100    0.0100    0.0100    0.0100    0.0100    0.0100    0.0100
    0.0100    0.0100    0.0100    0.0100    0.0100    0.0100    0.0100    0.0100
    0.0100    0.0100    0.0100    0.0100    0.0100    0.0100    0.0100    0.0100
    0.0100    0.0100    0.0100    0.0100    0.0100    0.0100    0.0100    0.0100
    0.0100    0.0100    0.0100    0.0100    0.0100    0.0100    0.0100    0.0100
    0.0100    0.0100    0.0100    0.0100    0.0100    0.0100    0.0100    0.0100
    0.0100    0.0100    0.0100    0.0100    0.0100    0.0100    0.0100    0.0100
    0.0100    0.0100    0.0100    0.0100    0.0100    0.0100    0.0100    0.0100
    0.0100    0.0100    0.0100    0.0100    0.0100    0.0100    0.0100    0.0100
    0.0100    0.0100    0.0100    0.0100    0.0100    0.0100    0.0100    0.0100
    0.0100    0.0100    0.0100    0.0100    0.0100    0.0100    0.0100    0.0100
    0.0100    0.0100    0.0100    0.0100    0.0100    0.0100    0.0100    0.0100
    0.0100    0.0100    0.0100    0.0100    0.0100    0.0100    0.0100    0.0100
    0.0100    0.0100    0.0100    0.0100    0.0100    0.0100    0.0100    0.0100
    0.0100    0.0100    0.0100    0.0100    0.0100    0.0100    0.0100    0.0100
    0.0100    0.0100    0.0100    0.0100    0.0100    0.0100    0.0100    0.0100
    0.0100    0.0100    0.0100    0.0100    0.0100    0.0100    0.0100    0.0100
    0.0100    0.0100    0.0100    0.0100    0.0100    0.0100    0.0100    0.0100
    0.0100    0.0100    0.0100    0.0100    0.0100    0.0100    0.0100    0.0100
    0.0100    0.0100    0.0100    0.0100    0.0100    0.0100    0.0100    0.0100
    0.0100    0.0100    0.0100    0.0100    0.0100    0.0100    0.0100    0.0100
    0.0100    0.0100    0.0100    0.0100    0.0100    0.0100    0.0100    0.0100
    0.0100    0.0100    0.0100    0.0100    0.0100    0.0100    0.0100    0.0100
    0.0100    0.0100    0.0100    0.0100    0.0100    0.0100    0.0100    0.0100
    0.0100    0.0100    0.0100    0.0100    0.0100    0.0100    0.0100    0.0100
    0.0100    0.0100    0.0100    0.0100    0.0100    0.0100    0.0100    0.0100
    0.0100    0.0100    0.0100    0.0100    0.0100    0.0100    0.0100    0.0100
    0.0100    0.0100    0.0100    0.0100    0.0100    0.0100    0.0100    0.0100
    0.0100    0.0100    0.0100    0.0100    0.0100    0.0100    0.0100    0.0100
    0.0100    0.0100    0.0100    0.0100    0.0100    0.0100    0.0100    0.0100
    0.0100    0.0100    0.0100    0.0100    0.0100    0.0100    0.0100    0.0100
    0.0100    0.0100    0.0100    0.0100    0.0100    0.0100    0.0100    0.0100
    0.0100    0.0100    0.0100    0.0100    0.0100    0.0100    0.0100    0.0100
    0.0100    0.0100    0.0100    0.0100    0.0100    0.0100    0.0100    0.0100
    0.0100    0.0100    0.0100    0.0100    0.0100    0.0100    0.0100    0.0100
    0.0100    0.0100    0.0100    0.0100    0.0100    0.0100    0.0100    0.0100
    0.0100    0.0100    0.0100    0.0100    0.0100    0.0100    0.0100    0.0100
    0.0100    0.0100    0.0100    0.0100    0.0100    0.0100    0.0100    0.0100
    0.0100    0.0100    0.0100    0.0100    0.0100    0.0100    0.0100    0.0100
    0.0100    0.0100    0.0100    0.0100    0.0100    0.0100    0.0100    0.0100
    0.0100    0.0100    0.0100    0.0100    0.0100    0.0100    0.0100    0.0100
    0.0100    0.0100    0.0100    0.0100    0.0100    0.0100    0.0100    0.0100
    0.0100    0.0100    0.0100    0.0100    0.0100    0.0100    0.0100    0.0100
    0.0100    0.0100    0.0100    0.0100    0.0100    0.0100    0.0100    0.0100
    0.0100    0.0100    0.0100    0.0100    0.0100    0.0100    0.0100    0.0100
    0.0100    0.0100    0.0100    0.0100    0.0100    0.0100    0.0100    0.0100
    0.0100    0.0100    0.0100    0.0100    0.0100    0.0100    0.0100    0.0100
    0.0100    0.0100    0.0100    0.0100    0.0100    0.0100    0.0100    0.0100
    0.0100    0.0100    0.0100    0.0100    0.0100    0.0100    0.0100    0.0100
    0.0100    0.0100    0.0100    0.0100    0.0100    0.0100    0.0100    0.0100
    0.0100    0.0100    0.0100    0.0100    0.0100    0.0100    0.0100    0.0100
    0.0100    0.0100    0.0100    0.0100    0.0100    0.0100    0.0100    0.0100
    0.0100    0.0100    0.0100    0.0100    0.0100    0.0100    0.0100    0.0100
    0.0100    0.0100    0.0100    0.0100    0.0100    0.0100    0.0100    0.0100
    0.0100    0.0100    0.0100    0.0100    0.0100    0.0100    0.0100    0.0100
    0.0100    0.0100    0.0100    0.0100    0.0100    0.0100    0.0100    0.0100
    0.0100    0.0100    0.0100    0.0100    0.0100    0.0100    0.0100    0.0100
    0.0100    0.0100    0.0100    0.0100    0.0100    0.0100    0.0100    0.0100
    0.0100    0.0100    0.0100    0.0100    0.0100    0.0100    0.0100    0.0100
    0.0100    0.0100    0.0100    0.0100    0.0100    0.0100    0.0100    0.0100
    0.0100    0.0100    0.0100    0.0100    0.0100    0.0100    0.0100    0.0100
    0.0100    0.0100    0.0100    0.0100    0.0100    0.0100    0.0100    0.0100
    0.0100    0.0100    0.0100    0.0100    0.0100    0.0100    0.0100    0.0100
    0.0100    0.0100    0.0100    0.0100    0.0100    0.0100    0.0100    0.0100
    0.0100    0.0100    0.0100    0.0100    0.0100    0.0100    0.0100    0.0100
    0.0100    0.0100    0.0100    0.0100    0.0100    0.0100    0.0100    0.0100
    0.0100    0.0100    0.0100    0.0100    0.0100    0.0100    0.0100    0.0100
    0.0100    0.0100    0.0100    0.0100    0.0100    0.0100    0.0100    0.0100
    0.0100    0.0100    0.0100    0.0100    0.0100    0.0100    0.0100    0.0100
    0.0100    0.0100    0.0100    0.0100    0.0100    0.0100    0.0100    0.0100
    0.0100    0.0100    0.0100    0.0100    0.0100    0.0100    0.0100    0.0100
    0.0100    0.0100    0.0100    0.0100    0.0100    0.0100    0.0100    0.0100
    0.0100    0.0100    0.0100    0.0100    0.0100    0.0100    0.0100    0.0100
    0.0100    0.0100    0.0100    0.0100    0.0100    0.0100    0.0100    0.0100
    0.0100    0.0100    0.0100    0.0100    0.0100    0.0100    0.0100    0.0100
    0.0100    0.0100    0.0100    0.0100    0.0100    0.0100    0.0100    0.0100
    0.0100    0.0100    0.0100    0.0100    0.0100    0.0100    0.0100    0.0100
    0.0100    0.0100    0.0100    0.0100    0.0100    0.0100    0.0100    0.0100
    0.0100    0.0100    0.0100    0.0100    0.0100    0.0100    0.0100    0.0100
    0.0100    0.0100    0.0100    0.0100    0.0100    0.0100    0.0100    0.0100
    0.0100    0.0100    0.0100    0.0100    0.0100    0.0100    0.0100    0.0100
    0.0100    0.0100    0.0100    0.0100    0.0100    0.0100    0.0100    0.0100
    0.0100    0.0100    0.0100    0.0100    0.0100    0.0100    0.0100    0.0100
    0.0100    0.0100    0.0100    0.0100    0.0100    0.0100    0.0100    0.0100
    0.0100    0.0100    0.0100    0.0100    0.0100    0.0100    0.0100    0.0100
    0.0100    0.0100    0.0100    0.0100    0.0100    0.0100    0.0100    0.0100
    0.0100    0.0100    0.0100    0.0100    0.0100    0.0100    0.0100    0.0100
    0.0100    0.0100    0.0100    0.0100    0.0100    0.0100    0.0100    0.0100
    0.0100    0.0100    0.0100    0.0100    0.0100    0.0100    0.0100    0.0100
    0.0100    0.0100    0.0100    0.0100    0.0100    0.0100    0.0100    0.0100
    0.0100    0.0100    0.0100    0.0100    0.0100    0.0100    0.0100    0.0100
    0.0100    0.0100    0.0100    0.0100    0.0100    0.0100    0.0100    0.0100
    0.0100    0.0100    0.0100    0.0100    0.0100    0.0100    0.0100    0.0100
    0.0100    0.0100    0.0100    0.0100    0.0100    0.0100    0.0100    0.0100
    0.0100    0.0100    0.0100    0.0100    0.0100    0.0100    0.0100    0.0100
    0.0100    0.0100    0.0100    0.0100    0.0100    0.0100    0.0100    0.0100
    0.0100    0.0100    0.0100    0.0100    0.0100    0.0100    0.0100    0.0100
    0.0100    0.0100    0.0100    0.0100    0.0100    0.0100    0.0100    0.0100
    0.0100    0.0100    0.0100    0.0100    0.0100    0.0100    0.0100    0.0100
    0.0100    0.0100    0.0100    0.0100    0.0100    0.0100    0.0100    0.0100
    0.0100    0.0100    0.0100    0.0100    0.0100    0.0100    0.0100    0.0100
    0.0100    0.0100    0.0100    0.0100    0.0100    0.0100    0.0100    0.0100
    0.0100    0.0100    0.0100    0.0100    0.0100    0.0100    0.0100    0.0100
    0.0100    0.0100    0.0100    0.0100    0.0100    0.0100    0.0100    0.0100
    0.0100    0.0100    0.0100    0.0100    0.0100    0.0100    0.0100    0.0100
    0.0100    0.0100    0.0100    0.0100    0.0100    0.0100    0.0100    0.0100
    0.0100    0.0100    0.0100    0.0100    0.0100    0.0100    0.0100    0.0100
    0.0100    0.0100    0.0100    0.0100    0.0100    0.0100    0.0100    0.0100
    0.0100    0.0100    0.0100    0.0100    0.0100    0.0100    0.0100    0.0100
    0.0100    0.0100    0.0100    0.0100    0.0100    0.0100    0.0100    0.0100
    0.0100    0.0100    0.0100    0.0100    0.0100    0.0100    0.0100    0.0100
    0.0100    0.0100    0.0100    0.0100    0.0100    0.0100    0.0100    0.0100
    0.0100    0.0100    0.0100    0.0100    0.0100    0.0100    0.0100    0.0100
    0.0100    0.0100    0.0100    0.0100    0.0100    0.0100    0.0100    0.0100
    0.0100    0.0100    0.0100    0.0100    0.0100    0.0100    0.0100    0.0100
    0.0100    0.0100    0.0100    0.0100    0.0100    0.0100    0.0100    0.0100
    0.0100    0.0100    0.0100    0.0100    0.0100    0.0100    0.0100    0.0100
    0.0100    0.0100    0.0100    0.0100    0.0100    0.0100    0.0100    0.0100
    0.0100    0.0100    0.0100    0.0100    0.0100    0.0100    0.0100    0.0100
    0.0100    0.0100    0.0100    0.0100    0.0100    0.0100    0.0100    0.0100
    0.0100    0.0100    0.0100    0.0100    0.0100    0.0100    0.0100    0.0100
    0.0100    0.0100    0.0100    0.0100    0.0100    0.0100    0.0100    0.0100
    0.0100    0.0100    0.0100    0.0100    0.0100    0.0100    0.0100    0.0100
    0.0100    0.0100    0.0100    0.0100    0.0100    0.0100    0.0100    0.0100
    0.0100    0.0100    0.0100    0.0100    0.0100    0.0100    0.0100    0.0100
    0.0100    0.0100    0.0100    0.0100    0.0100    0.0100    0.0100    0.0100
    0.0100    0.0100    0.0100    0.0100    0.0100    0.0100    0.0100    0.0100
    0.0100    0.0100    0.0100    0.0100    0.0100    0.0100    0.0100    0.0100
    0.0100    0.0100    0.0100    0.0100    0.0100    0.0100    0.0100    0.0100
    0.0100    0.0100    0.0100    0.0100    0.0100    0.0100    0.0100    0.0100
    0.0100    0.0100    0.0100    0.0100    0.0100    0.0100    0.0100    0.0100
    0.0100    0.0100    0.0100    0.0100    0.0100    0.0100    0.0100    0.0100
    0.0100    0.0100    0.0100    0.0100    0.0100    0.0100    0.0100    0.0100
    0.0100    0.0100    0.0100    0.0100    0.0100    0.0100    0.0100    0.0100
    0.0100    0.0100    0.0100    0.0100    0.0100    0.0100    0.0100    0.0100
    0.0100    0.0100    0.0100    0.0100    0.0100    0.0100    0.0100    0.0100
    0.0100    0.0100    0.0100    0.0100    0.0100    0.0100    0.0100    0.0100
    0.0100    0.0100    0.0100    0.0100    0.0100    0.0100    0.0100    0.0100
    0.0100    0.0100    0.0100    0.0100    0.0100    0.0100    0.0100    0.0100
    0.0100    0.0100    0.0100    0.0100    0.0100    0.0100    0.0100    0.0100
    0.0100    0.0100    0.0100    0.0100    0.0100    0.0100    0.0100    0.0100
    0.0100    0.0100    0.0100    0.0100    0.0100    0.0100    0.0100    0.0100
    0.0100    0.0100    0.0100    0.0100    0.0100    0.0100    0.0100    0.0100
    0.0100    0.0100    0.0100    0.0100    0.0100    0.0100    0.0100    0.0100
    0.0100    0.0100    0.0100    0.0100    0.0100    0.0100    0.0100    0.0100
    0.0100    0.0100    0.0100    0.0100    0.0100    0.0100    0.0100    0.0100
    0.0100    0.0100    0.0100    0.0100    0.0100    0.0100    0.0100    0.0100
    0.0100    0.0100    0.0100    0.0100    0.0100    0.0100    0.0100    0.0100
    0.0100    0.0100    0.0100    0.0100    0.0100    0.0100    0.0100    0.0100
    0.0100    0.0100    0.0100    0.0100    0.0100    0.0100    0.0100    0.0100
    0.0100    0.0100    0.0100    0.0100    0.0100    0.0100    0.0100    0.0100
    0.0100    0.0100    0.0100    0.0100    0.0100    0.0100    0.0100    0.0100
    0.0100    0.0100    0.0100    0.0100    0.0100    0.0100    0.0100    0.0100
    0.0100    0.0100    0.0100    0.0100    0.0100    0.0100    0.0100    0.0100
    0.0100    0.0100    0.0100    0.0100    0.0100    0.0100    0.0100    0.0100
    0.0100    0.0100    0.0100    0.0100    0.0100    0.0100    0.0100    0.0100
    0.0100    0.0100    0.0100    0.0100    0.0100    0.0100    0.0100    0.0100
    0.0100    0.0100    0.0100    0.0100    0.0100    0.0100    0.0100    0.0100
    0.0100    0.0100    0.0100    0.0100    0.0100    0.0100    0.0100    0.0100
    0.0100    0.0100    0.0100    0.0100    0.0100    0.0100    0.0100    0.0100
    0.0100    0.0100    0.0100    0.0100    0.0100    0.0100    0.0100    0.0100
    0.0100    0.0100    0.0100    0.0100    0.0100    0.0100    0.0100    0.0100
    0.0100    0.0100    0.0100    0.0100    0.0100    0.0100    0.0100    0.0100
    0.0100    0.0100    0.0100    0.0100    0.0100    0.0100    0.0100    0.0100
    0.0100    0.0100    0.0100    0.0100    0.0100    0.0100    0.0100    0.0100
    0.0100    0.0100    0.0100    0.0100    0.0100    0.0100    0.0100    0.0100
    0.0100    0.0100    0.0100    0.0100    0.0100    0.0100    0.0100    0.0100
    0.0100    0.0100    0.0100    0.0100    0.0100    0.0100    0.0100    0.0100
    0.0100    0.0100    0.0100    0.0100    0.0100    0.0100    0.0100    0.0100
    0.0100    0.0100    0.0100    0.0100    0.0100    0.0100    0.0100    0.0100
    0.0100    0.0100    0.0100    0.0100    0.0100    0.0100    0.0100    0.0100
    0.0100    0.0100    0.0100    0.0100    0.0100    0.0100    0.0100    0.0100
    0.0100    0.0100    0.0100    0.0100    0.0100    0.0100    0.0100    0.0100
    0.0100    0.0100    0.0100    0.0100    0.0100    0.0100    0.0100    0.0100
    0.0100    0.0100    0.0100    0.0100    0.0100    0.0100    0.0100    0.0100
    0.0100    0.0100    0.0100    0.0100    0.0100    0.0100    0.0100    0.0100
    0.0100    0.0100    0.0100    0.0100    0.0100    0.0100    0.0100    0.0100
    0.0100    0.0100    0.0100    0.0100    0.0100    0.0100    0.0100    0.0100
    0.0100    0.0100    0.0100    0.0100    0.0100    0.0100    0.0100    0.0100
    0.0100    0.0100    0.0100    0.0100    0.0100    0.0100    0.0100    0.0100
    0.0100    0.0100    0.0100    0.0100    0.0100    0.0100    0.0100    0.0100
    0.0100    0.0100    0.0100    0.0100    0.0100    0.0100    0.0100    0.0100
    0.0100    0.0100    0.0100    0.0100    0.0100    0.0100    0.0100    0.0100
    0.0100    0.0100    0.0100    0.0100    0.0100    0.0100    0.0100    0.0100
    0.0100    0.0100    0.0100    0.0100    0.0100    0.0100    0.0100    0.0100
    0.0100    0.0100    0.0100    0.0100    0.0100    0.0100    0.0100    0.0100
    0.0100    0.0100    0.0100    0.0100    0.0100    0.0100    0.0100    0.0100
    0.0100    0.0100    0.0100    0.0100    0.0100    0.0100    0.0100    0.0100
    0.0100    0.0100    0.0100    0.0100    0.0100    0.0100    0.0100    0.0100
    0.0100    0.0100    0.0100    0.0100    0.0100    0.0100    0.0100    0.0100
    0.0100    0.0100    0.0100    0.0100    0.0100    0.0100    0.0100    0.0100
    0.0100    0.0100    0.0100    0.0100    0.0100    0.0100    0.0100    0.0100
    0.0100    0.0100    0.0100    0.0100    0.0100    0.0100    0.0100    0.0100
    0.0100    0.0100    0.0100    0.0100    0.0100    0.0100    0.0100    0.0100
    0.0100    0.0100    0.0100    0.0100    0.0100    0.0100    0.0100    0.0100
    0.0100    0.0100    0.0100    0.0100    0.0100    0.0100    0.0100    0.0100
    0.0100    0.0100    0.0100    0.0100    0.0100    0.0100    0.0100    0.0100
    0.0100    0.0100    0.0100    0.0100    0.0100    0.0100    0.0100    0.0100
    0.0100    0.0100    0.0100    0.0100    0.0100    0.0100    0.0100    0.0100
    0.0100    0.0100    0.0100    0.0100    0.0100    0.0100    0.0100    0.0100
    0.0100    0.0100    0.0100    0.0100    0.0100    0.0100    0.0100    0.0100
    0.0100    0.0100    0.0100    0.0100    0.0100    0.0100    0.0100    0.0100
    0.0100    0.0100    0.0100    0.0100    0.0100    0.0100    0.0100    0.0100
    0.0100    0.0100    0.0100    0.0100    0.0100    0.0100    0.0100    0.0100
    0.0100    0.0100    0.0100    0.0100    0.0100    0.0100    0.0100    0.0100
    0.0100    0.0100    0.0100    0.0100    0.0100    0.0100    0.0100    0.0100
    0.0100    0.0100    0.0100    0.0100    0.0100    0.0100    0.0100    0.0100
    0.0100    0.0100    0.0100    0.0100    0.0100    0.0100    0.0100    0.0100
    0.0100    0.0100    0.0100    0.0100    0.0100    0.0100    0.0100    0.0100
    0.0100    0.0100    0.0100    0.0100    0.0100    0.0100    0.0100    0.0100
    0.0100    0.0100    0.0100    0.0100    0.0100    0.0100    0.0100    0.0100
    0.0100    0.0100    0.0100    0.0100    0.0100    0.0100    0.0100    0.0100
    0.0100    0.0100    0.0100    0.0100    0.0100    0.0100    0.0100    0.0100
    0.0100    0.0100    0.0100    0.0100    0.0100    0.0100    0.0100    0.0100
    0.0100    0.0100    0.0100    0.0100    0.0100    0.0100    0.0100    0.0100
    0.0100    0.0100    0.0100    0.0100    0.0100    0.0100    0.0100    0.0100
    0.0100    0.0100    0.0100    0.0100    0.0100    0.0100    0.0100    0.0100
    0.0100    0.0100    0.0100    0.0100    0.0100    0.0100    0.0100    0.0100
    0.0100    0.0100    0.0100    0.0100    0.0100    0.0100    0.0100    0.0100
    0.0100    0.0100    0.0100    0.0100    0.0100    0.0100    0.0100    0.0100
    0.0100    0.0100    0.0100    0.0100    0.0100    0.0100    0.0100    0.0100
    0.0100    0.0100    0.0100    0.0100    0.0100    0.0100    0.0100    0.0100
    0.0100    0.0100    0.0100    0.0100    0.0100    0.0100    0.0100    0.0100
    0.0100    0.0100    0.0100    0.0100    0.0100    0.0100    0.0100    0.0100
    0.0100    0.0100    0.0100    0.0100    0.0100    0.0100    0.0100    0.0100
    0.0100    0.0100    0.0100    0.0100    0.0100    0.0100    0.0100    0.0100
    0.0100    0.0100    0.0100    0.0100    0.0100    0.0100    0.0100    0.0100
    0.0100    0.0100    0.0100    0.0100    0.0100    0.0100    0.0100    0.0100
    0.0100    0.0100    0.0100    0.0100    0.0100    0.0100    0.0100    0.0100
    0.0100    0.0100    0.0100    0.0100    0.0100    0.0100    0.0100    0.0100
    0.0100    0.0100    0.0100    0.0100    0.0100    0.0100    0.0100    0.0100
    0.0100    0.0100    0.0100    0.0100    0.0100    0.0100    0.0100    0.0100
    0.0100    0.0100    0.0100    0.0100    0.0100    0.0100    0.0100    0.0100
    0.0100    0.0100    0.0100    0.0100    0.0100    0.0100    0.0100    0.0100
    0.0100    0.0100    0.0100    0.0100    0.0100    0.0100    0.0100    0.0100
    0.0100    0.0100    0.0100    0.0100    0.0100    0.0100    0.0100    0.0100
    0.0100    0.0100    0.0100    0.0100    0.0100    0.0100    0.0100    0.0100
    0.0100    0.0100    0.0100    0.0100    0.0100    0.0100    0.0100    0.0100
    0.0100    0.0100    0.0100    0.0100    0.0100    0.0100    0.0100    0.0100
    0.0100    0.0100    0.0100    0.0100    0.0100    0.0100    0.0100    0.0100
    0.0100    0.0100    0.0100    0.0100    0.0100    0.0100    0.0100    0.0100
    0.0100    0.0100    0.0100    0.0100    0.0100    0.0100    0.0100    0.0100
    0.0100    0.0100    0.0100    0.0100    0.0100    0.0100    0.0100    0.0100
    0.0100    0.0100    0.0100    0.0100    0.0100    0.0100    0.0100    0.0100
    0.0100    0.0100    0.0100    0.0100    0.0100    0.0100    0.0100    0.0100
    0.0100    0.0100    0.0100    0.0100    0.0100    0.0100    0.0100    0.0100
    0.0100    0.0100    0.0100    0.0100    0.0100    0.0100    0.0100    0.0100
    0.0100    0.0100    0.0100    0.0100    0.0100    0.0100    0.0100    0.0100
    0.0100    0.0100    0.0100    0.0100    0.0100    0.0100    0.0100    0.0100
    0.0100    0.0100    0.0100    0.0100    0.0100    0.0100    0.0100    0.0100
    0.0100    0.0100    0.0100    0.0100    0.0100    0.0100    0.0100    0.0100
    0.0100    0.0100    0.0100    0.0100    0.0100    0.0100    0.0100    0.0100
    0.0100    0.0100    0.0100    0.0100    0.0100    0.0100    0.0100    0.0100
    0.0100    0.0100    0.0100    0.0100    0.0100    0.0100    0.0100    0.0100
    0.0100    0.0100    0.0100    0.0100    0.0100    0.0100    0.0100    0.0100
    0.0100    0.0100    0.0100    0.0100    0.0100    0.0100    0.0100    0.0100
    0.0100    0.0100    0.0100    0.0100    0.0100    0.0100    0.0100    0.0100
    0.0100    0.0100    0.0100    0.0100    0.0100    0.0100    0.0100    0.0100
    0.0100    0.0100    0.0100    0.0100    0.0100    0.0100    0.0100    0.0100
    0.0100    0.0100    0.0100    0.0100    0.0100    0.0100    0.0100    0.0100
    0.0100    0.0100    0.0100    0.0100    0.0100    0.0100    0.0100    0.0100
    0.0100    0.0100    0.0100    0.0100    0.0100    0.0100    0.0100    0.0100
    0.0100    0.0100    0.0100    0.0100    0.0100    0.0100    0.0100    0.0100
    0.0100    0.0100    0.0100    0.0100    0.0100    0.0100    0.0100    0.0100
    0.0100    0.0100    0.0100    0.0100    0.0100    0.0100    0.0100    0.0100
    0.0100    0.0100    0.0100    0.0100    0.0100    0.0100    0.0100    0.0100
    0.0100    0.0100    0.0100    0.0100    0.0100    0.0100    0.0100    0.0100
    0.0100    0.0100    0.0100    0.0100    0.0100    0.0100    0.0100    0.0100
    0.0100    0.0100    0.0100    0.0100    0.0100    0.0100    0.0100    0.0100
    0.0100    0.0100    0.0100    0.0100    0.0100    0.0100    0.0100    0.0100
    0.0100    0.0100    0.0100    0.0100    0.0100    0.0100    0.0100    0.0100
    0.0100    0.0100    0.0100    0.0100    0.0100    0.0100    0.0100    0.0100
    0.0100    0.0100    0.0100    0.0100    0.0100    0.0100    0.0100    0.0100
    0.0100    0.0100    0.0100    0.0100    0.0100    0.0100    0.0100    0.0100
    0.0100    0.0100    0.0100    0.0100    0.0100    0.0100    0.0100    0.0100
    0.0100    0.0100    0.0100    0.0100    0.0100    0.0100    0.0100    0.0100
    0.0100    0.0100    0.0100    0.0100    0.0100    0.0100    0.0100    0.0100
    0.0100    0.0100    0.0100    0.0100    0.0100    0.0100    0.0100    0.0100
    0.0100    0.0100    0.0100    0.0100    0.0100    0.0100    0.0100    0.0100
    0.0100    0.0100    0.0100    0.0100    0.0100    0.0100    0.0100    0.0100
    0.0100    0.0100    0.0100    0.0100    0.0100    0.0100    0.0100    0.0100
    0.0100    0.0100    0.0100    0.0100    0.0100    0.0100    0.0100    0.0100
    0.0100    0.0100    0.0100    0.0100    0.0100    0.0100    0.0100    0.0100
    0.0100    0.0100    0.0100    0.0100    0.0100    0.0100    0.0100    0.0100
    0.0100    0.0100    0.0100    0.0100    0.0100    0.0100    0.0100    0.0100
    0.0100    0.0100    0.0100    0.0100    0.0100    0.0100    0.0100    0.0100
    0.0100    0.0100    0.0100    0.0100    0.0100    0.0100    0.0100    0.0100
    0.0100    0.0100    0.0100    0.0100    0.0100    0.0100    0.0100    0.0100
    0.0100    0.0100    0.0100    0.0100    0.0100    0.0100    0.0100    0.0100
    0.0100    0.0100    0.0100    0.0100    0.0100    0.0100    0.0100    0.0100
    0.0100    0.0100    0.0100    0.0100    0.0100    0.0100    0.0100    0.0100
    0.0100    0.0100    0.0100    0.0100    0.0100    0.0100    0.0100    0.0100
    0.0100    0.0100    0.0100    0.0100    0.0100    0.0100    0.0100    0.0100
    0.0100    0.0100    0.0100    0.0100    0.0100    0.0100    0.0100    0.0100
    0.0100    0.0100    0.0100    0.0100    0.0100    0.0100    0.0100    0.0100
    0.0100    0.0100    0.0100    0.0100    0.0100    0.0100    0.0100    0.0100
    0.0100    0.0100    0.0100    0.0100    0.0100    0.0100    0.0100    0.0100
    0.0100    0.0100    0.0100    0.0100    0.0100    0.0100    0.0100    0.0100
    0.0100    0.0100    0.0100    0.0100    0.0100    0.0100    0.0100    0.0100
    0.0100    0.0100    0.0100    0.0100    0.0100    0.0100    0.0100    0.0100
    0.0100    0.0100    0.0100    0.0100    0.0100    0.0100    0.0100    0.0100
    0.0100    0.0100    0.0100    0.0100    0.0100    0.0100    0.0100    0.0100
    0.0100    0.0100    0.0100    0.0100    0.0100    0.0100    0.0100    0.0100
    0.0100    0.0100    0.0100    0.0100    0.0100    0.0100    0.0100    0.0100
    0.0100    0.0100    0.0100    0.0100    0.0100    0.0100    0.0100    0.0100
    0.0100    0.0100    0.0100    0.0100    0.0100    0.0100    0.0100    0.0100
    0.0100    0.0100    0.0100    0.0100    0.0100    0.0100    0.0100    0.0100
    0.0100    0.0100    0.0100    0.0100    0.0100    0.0100    0.0100    0.0100
    0.0100    0.0100    0.0100    0.0100    0.0100    0.0100    0.0100    0.0100
    0.0100    0.0100    0.0100    0.0100    0.0100    0.0100    0.0100    0.0100
    0.0100    0.0100    0.0100    0.0100    0.0100    0.0100    0.0100    0.0100
    0.0100    0.0100    0.0100    0.0100    0.0100    0.0100    0.0100    0.0100
    0.0100    0.0100    0.0100    0.0100    0.0100    0.0100    0.0100    0.0100
    0.0100    0.0100    0.0100    0.0100    0.0100    0.0100    0.0100    0.0100
    0.0100    0.0100    0.0100    0.0100    0.0100    0.0100    0.0100    0.0100
    0.0100    0.0100    0.0100    0.0100    0.0100    0.0100    0.0100    0.0100
    0.0100    0.0100    0.0100    0.0100    0.0100    0.0100    0.0100    0.0100
    0.0100    0.0100    0.0100    0.0100    0.0100    0.0100    0.0100    0.0100
    0.0100    0.0100    0.0100    0.0100    0.0100    0.0100    0.0100    0.0100
    0.0100    0.0100    0.0100    0.0100    0.0100    0.0100    0.0100    0.0100
    0.0100    0.0100    0.0100    0.0100    0.0100    0.0100    0.0100    0.0100
    0.0100    0.0100    0.0100    0.0100    0.0100    0.0100    0.0100    0.0100
    0.0100    0.0100    0.0100    0.0100    0.0100    0.0100    0.0100    0.0100
    0.0100    0.0100    0.0100    0.0100    0.0100    0.0100    0.0100    0.0100
    0.0100    0.0100    0.0100    0.0100    0.0100    0.0100    0.0100    0.0100
    0.0100    0.0100    0.0100    0.0100    0.0100    0.0100    0.0100    0.0100
    0.0100    0.0100    0.0100    0.0100    0.0100    0.0100    0.0100    0.0100
    0.0100    0.0100    0.0100    0.0100    0.0100    0.0100    0.0100    0.0100
    0.0100    0.0100    0.0100    0.0100    0.0100    0.0100    0.0100    0.0100
    0.0100    0.0100    0.0100    0.0100    0.0100    0.0100    0.0100    0.0100
    0.0100    0.0100    0.0100    0.0100    0.0100    0.0100    0.0100    0.0100
    0.0100    0.0100    0.0100    0.0100    0.0100    0.0100    0.0100    0.0100
    0.0100    0.0100    0.0100    0.0100    0.0100    0.0100    0.0100    0.0100
    0.0100    0.0100    0.0100    0.0100    0.0100    0.0100    0.0100    0.0100
    0.0100    0.0100    0.0100    0.0100    0.0100    0.0100    0.0100    0.0100
    0.0100    0.0100    0.0100    0.0100    0.0100    0.0100    0.0100    0.0100
    0.0100    0.0100    0.0100    0.0100    0.0100    0.0100    0.0100    0.0100
    0.0100    0.0100    0.0100    0.0100    0.0100    0.0100    0.0100    0.0100
    0.0100    0.0100    0.0100    0.0100    0.0100    0.0100    0.0100    0.0100
    0.0100    0.0100    0.0100    0.0100    0.0100    0.0100    0.0100    0.0100
    0.0100    0.0100    0.0100    0.0100    0.0100    0.0100    0.0100    0.0100
    0.0100    0.0100    0.0100    0.0100    0.0100    0.0100    0.0100    0.0100
    0.0100    0.0100    0.0100    0.0100    0.0100    0.0100    0.0100    0.0100
    0.0100    0.0100    0.0100    0.0100    0.0100    0.0100    0.0100    0.0100
    0.0100    0.0100    0.0100    0.0100    0.0100    0.0100    0.0100    0.0100
    0.0100    0.0100    0.0100    0.0100    0.0100    0.0100    0.0100    0.0100
    0.0100    0.0100    0.0100    0.0100    0.0100    0.0100    0.0100    0.0100
    0.0100    0.0100    0.0100    0.0100    0.0100    0.0100    0.0100    0.0100
    0.0100    0.0100    0.0100    0.0100    0.0100    0.0100    0.0100    0.0100
    0.0100    0.0100    0.0100    0.0100    0.0100    0.0100    0.0100    0.0100
    0.0100    0.0100    0.0100    0.0100    0.0100    0.0100    0.0100    0.0100
    0.0100    0.0100    0.0100    0.0100    0.0100    0.0100    0.0100    0.0100
    0.0100    0.0100    0.0100    0.0100    0.0100    0.0100    0.0100    0.0100
    0.0100    0.0100    0.0100    0.0100    0.0100    0.0100    0.0100    0.0100
    0.0100    0.0100    0.0100    0.0100    0.0100    0.0100    0.0100    0.0100
    0.0100    0.0100    0.0100    0.0100    0.0100    0.0100    0.0100    0.0100
    0.0100    0.0100    0.0100    0.0100    0.0100    0.0100    0.0100    0.0100
    0.0100    0.0100    0.0100    0.0100    0.0100    0.0100    0.0100    0.0100
    0.0100    0.0100    0.0100    0.0100    0.0100    0.0100    0.0100    0.0100
    0.0100    0.0100    0.0100    0.0100    0.0100    0.0100    0.0100    0.0100
    0.0100    0.0100    0.0100    0.0100    0.0100    0.0100    0.0100    0.0100
    0.0100    0.0100    0.0100    0.0100    0.0100    0.0100    0.0100    0.0100
    0.0100    0.0100    0.0100    0.0100    0.0100    0.0100    0.0100    0.0100
    0.0100    0.0100    0.0100    0.0100    0.0100    0.0100    0.0100    0.0100
    0.0100    0.0100    0.0100    0.0100    0.0100    0.0100    0.0100    0.0100
    0.0100    0.0100    0.0100    0.0100    0.0100    0.0100    0.0100    0.0100
    0.0100    0.0100    0.0100    0.0100    0.0100    0.0100    0.0100    0.0100
    0.0100    0.0100    0.0100    0.0100    0.0100    0.0100    0.0100    0.0100
    0.0100    0.0100    0.0100    0.0100    0.0100    0.0100    0.0100    0.0100
    0.0100    0.0100    0.0100    0.0100    0.0100    0.0100    0.0100    0.0100
    0.0100    0.0100    0.0100    0.0100    0.0100    0.0100    0.0100    0.0100
    0.0100    0.0100    0.0100    0.0100    0.0100    0.0100    0.0100    0.0100
    0.0100    0.0100    0.0100    0.0100    0.0100    0.0100    0.0100    0.0100
    0.0100    0.0100    0.0100    0.0100    0.0100    0.0100    0.0100    0.0100
    0.0100    0.0100    0.0100    0.0100    0.0100    0.0100    0.0100    0.0100
    0.0100    0.0100    0.0100    0.0100    0.0100    0.0100    0.0100    0.0100
    0.0100    0.0100    0.0100    0.0100    0.0100    0.0100    0.0100    0.0100
    0.0100    0.0100    0.0100    0.0100    0.0100    0.0100    0.0100    0.0100
    0.0100    0.0100    0.0100    0.0100    0.0100    0.0100    0.0100    0.0100
    0.0100
</PP_RAB>
 </PP_MESH>
  <PP_LOCAL type="real"  size="12001" columns="4">
     4.5135166684E+00     4.5129149384E+00     4.5111106145E+00     4.5081062929E+00
     4.5039062920E+00     4.4985166407E+00     4.4919450606E+00     4.4842009446E+00
     4.4752953299E+00     4.4652408671E+00     4.4540517842E+00     4.4417438472E+00
     4.4283343159E+00     4.4138418956E+00     4.3982866861E+00     4.3816901261E+00
     4.3640749349E+00     4.3454650511E+00     4.3258855681E+00     4.3053626676E+00
     4.2839235504E+00     4.2615963659E+00     4.2384101389E+00     4.2143946956E+00
     4.1895805891E+00     4.1639990225E+00     4.1376817729E+00     4.1106611145E+00
     4.0829697416E+00     4.0546406923E+00     4.0257072723E+00     3.9962029800E+00
     3.9661614320E+00     3.9356162907E+00     3.9046011926E+00     3.8731496791E+00
     3.8412951285E+00     3.8090706911E+00     3.7765092253E+00     3.7436432374E+00
     3.7105048235E+00     3.6771256140E+00     3.6435367212E+00     3.6097686899E+00
     3.5758514508E+00     3.5418142774E+00     3.5076857458E+00     3.4734936978E+00
     3.4392652068E+00     3.4050265483E+00     3.3708031718E+00     3.3366196772E+00
     3.3024997943E+00     3.2684663646E+00     3.2345413273E+00     3.2007457075E+00
     3.1670996077E+00     3.1336222022E+00     3.1003317341E+00     3.0672455150E+00
     3.0343799274E+00     3.0017504296E+00     2.9693715622E+00     2.9372569581E+00
     2.9054193532E+00     2.8738705998E+00     2.8426216820E+00     2.8116827321E+00
     2.7810630487E+00     2.7507711167E+00     2.7208146279E+00     2.6912005032E+00
     2.6619349155E+00     2.6330233137E+00     2.6044704471E+00     2.5762803906E+00
     2.5484565708E+00     2.5210017918E+00     2.4939182616E+00     2.4672076186E+00
     2.4408709584E+00     2.4149088602E+00     2.3893214135E+00     2.3641082441E+00
     2.3392685405E+00     2.3148010790E+00     2.2907042497E+00     2.2669760804E+00
     2.2436142619E+00     2.2206161706E+00     2.1979788925E+00     2.1756992450E+00
     2.1537737990E+00     2.1321988996E+00     2.1109706867E+00     2.0900851142E+00
     2.0695379689E+00     2.0493248884E+00     2.0294413785E+00     2.0098828291E+00
     1.9906445300E+00     1.9717216860E+00     1.9531094304E+00     1.9348028384E+00
     1.9167969397E+00     1.8990867302E+00     1.8816671826E+00     1.8645332573E+00
     1.8476799115E+00     1.8311021083E+00     1.8147948249E+00     1.7987530601E+00
     1.7829718416E+00     1.7674462321E+00     1.7521713353E+00     1.7371423016E+00
     1.7223543320E+00     1.7078026835E+00     1.6934826723E+00     1.6793896773E+00
     1.6655191435E+00     1.6518665843E+00     1.6384275838E+00     1.6251977990E+00
     1.6121729610E+00     1.5993488768E+00     1.5867214299E+00     1.5742865814E+00
     1.5620403703E+00     1.5499789141E+00     1.5380984086E+00     1.5263951282E+00
     1.5148654252E+00     1.5035057301E+00     1.4923125503E+00     1.4812824700E+00
     1.4704121492E+00     1.4596983230E+00     1.4491378005E+00     1.4387274638E+00
     1.4284642669E+00     1.4183452346E+00     1.4083674615E+00     1.3985281102E+00
     1.3888244106E+00     1.3792536581E+00     1.3698132127E+00     1.3605004974E+00
     1.3513129969E+00     1.3422482562E+00     1.3333038793E+00     1.3244775280E+00
     1.3157669199E+00     1.3071698280E+00     1.2986840785E+00     1.2903075501E+00
     1.2820381723E+00     1.2738739241E+00     1.2658128332E+00     1.2578529743E+00
     1.2499924678E+00     1.2422294791E+00     1.2345622168E+00     1.2269889323E+00
     1.2195079178E+00     1.2121175058E+00     1.2048160679E+00     1.1976020138E+00
     1.1904737898E+00     1.1834298786E+00     1.1764687977E+00     1.1695890986E+00
     1.1627893661E+00     1.1560682171E+00     1.1494243000E+00     1.1428562936E+00
     1.1363629064E+00     1.1299428759E+00     1.1235949676E+00     1.1173179743E+00
     1.1111107157E+00     1.1049720371E+00     1.0989008092E+00     1.0928959271E+00
     1.0869563101E+00     1.0810809004E+00     1.0752686630E+00     1.0695185852E+00
     1.0638296753E+00     1.0582009629E+00     1.0526314979E+00     1.0471203500E+00
     1.0416666082E+00     1.0362693804E+00     1.0309277929E+00     1.0256409900E+00
     1.0204081330E+00     1.0152284008E+00     1.0101009885E+00     1.0050251074E+00
     9.9999998458E-01     9.9502486261E-01     9.9009899893E-01     9.8522166564E-01
     9.8039214909E-01     9.7560974956E-01     9.7087378091E-01     9.6618357026E-01
     9.6153845766E-01     9.5693779579E-01     9.5238094966E-01     9.4786729630E-01
     9.4339622451E-01     9.3896713455E-01     9.3457943792E-01     9.3023255703E-01
     9.2592592500E-01     9.2165898540E-01     9.1743119201E-01     9.1324200859E-01
     9.0909090864E-01     9.0497737519E-01     9.0090090059E-01     8.9686098629E-01
     8.9285714264E-01     8.8888888871E-01     8.8495575206E-01     8.8105726860E-01
     8.7719298235E-01     8.7336244533E-01     8.6956521732E-01     8.6580086574E-01
     8.6206896547E-01     8.5836909867E-01     8.5470085467E-01     8.5106382976E-01
     8.4745762709E-01     8.4388185652E-01     8.4033613444E-01     8.3682008367E-01
     8.3333333332E-01     8.2987551866E-01     8.2644628098E-01     8.2304526748E-01
     8.1967213114E-01     8.1632653061E-01     8.1300813008E-01     8.0971659918E-01
     8.0645161290E-01     8.0321285140E-01     8.0000000000E-01     7.9681274900E-01
     7.9365079365E-01     7.9051383399E-01     7.8740157480E-01     7.8431372549E-01
     7.8125000000E-01     7.7821011673E-01     7.7519379845E-01     7.7220077220E-01
     7.6923076923E-01     7.6628352490E-01     7.6335877862E-01     7.6045627376E-01
     7.5757575757E-01     7.5471698113E-01     7.5187969925E-01     7.4906367041E-01
     7.4626865671E-01     7.4349442379E-01     7.4074074074E-01     7.3800738007E-01
     7.3529411764E-01     7.3260073260E-01     7.2992700730E-01     7.2727272727E-01
     7.2463768116E-01     7.2202166065E-01     7.1942446043E-01     7.1684587813E-01
     7.1428571428E-01     7.1174377224E-01     7.0921985815E-01     7.0671378092E-01
     7.0422535211E-01     7.0175438596E-01     6.9930069930E-01     6.9686411150E-01
     6.9444444444E-01     6.9204152249E-01     6.8965517241E-01     6.8728522336E-01
     6.8493150685E-01     6.8259385665E-01     6.8027210884E-01     6.7796610169E-01
     6.7567567567E-01     6.7340067340E-01     6.7114093959E-01     6.6889632107E-01
     6.6666666666E-01     6.6445182724E-01     6.6225165563E-01     6.6006600660E-01
     6.5789473684E-01     6.5573770492E-01     6.5359477124E-01     6.5146579804E-01
     6.4935064935E-01     6.4724919094E-01     6.4516129032E-01     6.4308681672E-01
     6.4102564102E-01     6.3897763578E-01     6.3694267516E-01     6.3492063492E-01
     6.3291139240E-01     6.3091482650E-01     6.2893081761E-01     6.2695924765E-01
     6.2500000000E-01     6.2305295950E-01     6.2111801242E-01     6.1919504644E-01
     6.1728395061E-01     6.1538461538E-01     6.1349693251E-01     6.1162079510E-01
     6.0975609756E-01     6.0790273556E-01     6.0606060606E-01     6.0422960725E-01
     6.0240963855E-01     6.0060060060E-01     5.9880239521E-01     5.9701492537E-01
     5.9523809524E-01     5.9347181009E-01     5.9171597633E-01     5.8997050147E-01
     5.8823529412E-01     5.8651026393E-01     5.8479532164E-01     5.8309037901E-01
     5.8139534883E-01     5.7971014493E-01     5.7803468208E-01     5.7636887608E-01
     5.7471264368E-01     5.7306590258E-01     5.7142857143E-01     5.6980056980E-01
     5.6818181818E-01     5.6657223796E-01     5.6497175141E-01     5.6338028169E-01
     5.6179775281E-01     5.6022408963E-01     5.5865921787E-01     5.5710306406E-01
     5.5555555555E-01     5.5401662050E-01     5.5248618784E-01     5.5096418733E-01
     5.4945054945E-01     5.4794520548E-01     5.4644808743E-01     5.4495912806E-01
     5.4347826087E-01     5.4200542005E-01     5.4054054054E-01     5.3908355795E-01
     5.3763440860E-01     5.3619302949E-01     5.3475935829E-01     5.3333333333E-01
     5.3191489361E-01     5.3050397878E-01     5.2910052910E-01     5.2770448549E-01
     5.2631578947E-01     5.2493438320E-01     5.2356020942E-01     5.2219321149E-01
     5.2083333333E-01     5.1948051948E-01     5.1813471502E-01     5.1679586563E-01
     5.1546391752E-01     5.1413881748E-01     5.1282051282E-01     5.1150895140E-01
     5.1020408163E-01     5.0890585242E-01     5.0761421320E-01     5.0632911392E-01
     5.0505050505E-01     5.0377833753E-01     5.0251256281E-01     5.0125313283E-01
     5.0000000000E-01     4.9875311720E-01     4.9751243781E-01     4.9627791563E-01
     4.9504950495E-01     4.9382716049E-01     4.9261083744E-01     4.9140049140E-01
     4.9019607843E-01     4.8899755501E-01     4.8780487805E-01     4.8661800486E-01
     4.8543689320E-01     4.8426150121E-01     4.8309178744E-01     4.8192771084E-01
     4.8076923077E-01     4.7961630695E-01     4.7846889952E-01     4.7732696897E-01
     4.7619047619E-01     4.7505938242E-01     4.7393364929E-01     4.7281323877E-01
     4.7169811321E-01     4.7058823529E-01     4.6948356807E-01     4.6838407494E-01
     4.6728971962E-01     4.6620046620E-01     4.6511627907E-01     4.6403712297E-01
     4.6296296296E-01     4.6189376443E-01     4.6082949309E-01     4.5977011494E-01
     4.5871559633E-01     4.5766590389E-01     4.5662100456E-01     4.5558086560E-01
     4.5454545454E-01     4.5351473923E-01     4.5248868778E-01     4.5146726862E-01
     4.5045045045E-01     4.4943820225E-01     4.4843049327E-01     4.4742729306E-01
     4.4642857143E-01     4.4543429844E-01     4.4444444444E-01     4.4345898004E-01
     4.4247787610E-01     4.4150110375E-01     4.4052863436E-01     4.3956043956E-01
     4.3859649123E-01     4.3763676149E-01     4.3668122271E-01     4.3572984749E-01
     4.3478260869E-01     4.3383947939E-01     4.3290043290E-01     4.3196544276E-01
     4.3103448276E-01     4.3010752688E-01     4.2918454935E-01     4.2826552462E-01
     4.2735042735E-01     4.2643923241E-01     4.2553191489E-01     4.2462845010E-01
     4.2372881356E-01     4.2283298097E-01     4.2194092827E-01     4.2105263158E-01
     4.2016806723E-01     4.1928721174E-01     4.1841004184E-01     4.1753653445E-01
     4.1666666667E-01     4.1580041580E-01     4.1493775933E-01     4.1407867495E-01
     4.1322314049E-01     4.1237113402E-01     4.1152263374E-01     4.1067761807E-01
     4.0983606557E-01     4.0899795501E-01     4.0816326530E-01     4.0733197556E-01
     4.0650406504E-01     4.0567951318E-01     4.0485829959E-01     4.0404040404E-01
     4.0322580645E-01     4.0241448692E-01     4.0160642570E-01     4.0080160320E-01
     4.0000000000E-01     3.9920159680E-01     3.9840637450E-01     3.9761431411E-01
     3.9682539682E-01     3.9603960396E-01     3.9525691699E-01     3.9447731755E-01
     3.9370078740E-01     3.9292730845E-01     3.9215686274E-01     3.9138943248E-01
     3.9062500000E-01     3.8986354776E-01     3.8910505836E-01     3.8834951456E-01
     3.8759689922E-01     3.8684719536E-01     3.8610038610E-01     3.8535645472E-01
     3.8461538461E-01     3.8387715931E-01     3.8314176245E-01     3.8240917782E-01
     3.8167938931E-01     3.8095238095E-01     3.8022813688E-01     3.7950664136E-01
     3.7878787879E-01     3.7807183365E-01     3.7735849056E-01     3.7664783427E-01
     3.7593984962E-01     3.7523452157E-01     3.7453183520E-01     3.7383177570E-01
     3.7313432836E-01     3.7243947858E-01     3.7174721189E-01     3.7105751391E-01
     3.7037037037E-01     3.6968576710E-01     3.6900369004E-01     3.6832412523E-01
     3.6764705882E-01     3.6697247706E-01     3.6630036630E-01     3.6563071298E-01
     3.6496350365E-01     3.6429872495E-01     3.6363636363E-01     3.6297640653E-01
     3.6231884058E-01     3.6166365280E-01     3.6101083032E-01     3.6036036036E-01
     3.5971223021E-01     3.5906642729E-01     3.5842293907E-01     3.5778175313E-01
     3.5714285714E-01     3.5650623886E-01     3.5587188612E-01     3.5523978685E-01
     3.5460992908E-01     3.5398230088E-01     3.5335689046E-01     3.5273368607E-01
     3.5211267605E-01     3.5149384886E-01     3.5087719298E-01     3.5026269702E-01
     3.4965034965E-01     3.4904013961E-01     3.4843205575E-01     3.4782608696E-01
     3.4722222222E-01     3.4662045061E-01     3.4602076124E-01     3.4542314335E-01
     3.4482758621E-01     3.4423407917E-01     3.4364261168E-01     3.4305317324E-01
     3.4246575342E-01     3.4188034188E-01     3.4129692833E-01     3.4071550255E-01
     3.4013605442E-01     3.3955857385E-01     3.3898305085E-01     3.3840947546E-01
     3.3783783784E-01     3.3726812816E-01     3.3670033670E-01     3.3613445378E-01
     3.3557046980E-01     3.3500837521E-01     3.3444816053E-01     3.3388981636E-01
     3.3333333333E-01     3.3277870216E-01     3.3222591362E-01     3.3167495854E-01
     3.3112582781E-01     3.3057851240E-01     3.3003300330E-01     3.2948929160E-01
     3.2894736842E-01     3.2840722496E-01     3.2786885246E-01     3.2733224222E-01
     3.2679738562E-01     3.2626427406E-01     3.2573289902E-01     3.2520325203E-01
     3.2467532467E-01     3.2414910859E-01     3.2362459547E-01     3.2310177706E-01
     3.2258064516E-01     3.2206119163E-01     3.2154340836E-01     3.2102728732E-01
     3.2051282051E-01     3.2000000000E-01     3.1948881789E-01     3.1897926635E-01
     3.1847133758E-01     3.1796502385E-01     3.1746031746E-01     3.1695721078E-01
     3.1645569620E-01     3.1595576619E-01     3.1545741325E-01     3.1496062992E-01
     3.1446540880E-01     3.1397174254E-01     3.1347962382E-01     3.1298904538E-01
     3.1250000000E-01     3.1201248050E-01     3.1152647975E-01     3.1104199067E-01
     3.1055900621E-01     3.1007751938E-01     3.0959752322E-01     3.0911901082E-01
     3.0864197531E-01     3.0816640986E-01     3.0769230769E-01     3.0721966206E-01
     3.0674846626E-01     3.0627871363E-01     3.0581039755E-01     3.0534351145E-01
     3.0487804878E-01     3.0441400304E-01     3.0395136778E-01     3.0349013657E-01
     3.0303030303E-01     3.0257186082E-01     3.0211480362E-01     3.0165912519E-01
     3.0120481928E-01     3.0075187970E-01     3.0030030030E-01     2.9985007496E-01
     2.9940119760E-01     2.9895366218E-01     2.9850746269E-01     2.9806259314E-01
     2.9761904762E-01     2.9717682021E-01     2.9673590504E-01     2.9629629630E-01
     2.9585798816E-01     2.9542097489E-01     2.9498525074E-01     2.9455081001E-01
     2.9411764706E-01     2.9368575624E-01     2.9325513196E-01     2.9282576867E-01
     2.9239766082E-01     2.9197080292E-01     2.9154518950E-01     2.9112081514E-01
     2.9069767442E-01     2.9027576197E-01     2.8985507246E-01     2.8943560058E-01
     2.8901734104E-01     2.8860028860E-01     2.8818443804E-01     2.8776978417E-01
     2.8735632184E-01     2.8694404591E-01     2.8653295129E-01     2.8612303290E-01
     2.8571428571E-01     2.8530670471E-01     2.8490028490E-01     2.8449502134E-01
     2.8409090909E-01     2.8368794326E-01     2.8328611898E-01     2.8288543140E-01
     2.8248587571E-01     2.8208744711E-01     2.8169014084E-01     2.8129395218E-01
     2.8089887640E-01     2.8050490883E-01     2.8011204482E-01     2.7972027972E-01
     2.7932960894E-01     2.7894002789E-01     2.7855153203E-01     2.7816411683E-01
     2.7777777778E-01     2.7739251040E-01     2.7700831025E-01     2.7662517289E-01
     2.7624309392E-01     2.7586206896E-01     2.7548209366E-01     2.7510316369E-01
     2.7472527472E-01     2.7434842250E-01     2.7397260274E-01     2.7359781122E-01
     2.7322404371E-01     2.7285129604E-01     2.7247956403E-01     2.7210884354E-01
     2.7173913043E-01     2.7137042062E-01     2.7100271003E-01     2.7063599459E-01
     2.7027027027E-01     2.6990553306E-01     2.6954177897E-01     2.6917900404E-01
     2.6881720430E-01     2.6845637584E-01     2.6809651474E-01     2.6773761713E-01
     2.6737967914E-01     2.6702269693E-01     2.6666666667E-01     2.6631158455E-01
     2.6595744681E-01     2.6560424967E-01     2.6525198939E-01     2.6490066225E-01
     2.6455026455E-01     2.6420079260E-01     2.6385224274E-01     2.6350461133E-01
     2.6315789474E-01     2.6281208936E-01     2.6246719160E-01     2.6212319790E-01
     2.6178010471E-01     2.6143790850E-01     2.6109660574E-01     2.6075619296E-01
     2.6041666667E-01     2.6007802341E-01     2.5974025974E-01     2.5940337224E-01
     2.5906735751E-01     2.5873221216E-01     2.5839793282E-01     2.5806451613E-01
     2.5773195876E-01     2.5740025740E-01     2.5706940874E-01     2.5673940950E-01
     2.5641025641E-01     2.5608194622E-01     2.5575447570E-01     2.5542784163E-01
     2.5510204082E-01     2.5477707006E-01     2.5445292621E-01     2.5412960610E-01
     2.5380710660E-01     2.5348542459E-01     2.5316455696E-01     2.5284450063E-01
     2.5252525252E-01     2.5220680958E-01     2.5188916876E-01     2.5157232704E-01
     2.5125628141E-01     2.5094102886E-01     2.5062656642E-01     2.5031289111E-01
     2.5000000000E-01     2.4968789014E-01     2.4937655860E-01     2.4906600249E-01
     2.4875621890E-01     2.4844720497E-01     2.4813895782E-01     2.4783147460E-01
     2.4752475247E-01     2.4721878863E-01     2.4691358025E-01     2.4660912454E-01
     2.4630541872E-01     2.4600246002E-01     2.4570024570E-01     2.4539877301E-01
     2.4509803921E-01     2.4479804161E-01     2.4449877751E-01     2.4420024420E-01
     2.4390243902E-01     2.4360535932E-01     2.4330900243E-01     2.4301336573E-01
     2.4271844660E-01     2.4242424242E-01     2.4213075060E-01     2.4183796856E-01
     2.4154589372E-01     2.4125452352E-01     2.4096385542E-01     2.4067388688E-01
     2.4038461538E-01     2.4009603841E-01     2.3980815348E-01     2.3952095808E-01
     2.3923444976E-01     2.3894862604E-01     2.3866348449E-01     2.3837902265E-01
     2.3809523809E-01     2.3781212842E-01     2.3752969121E-01     2.3724792408E-01
     2.3696682464E-01     2.3668639053E-01     2.3640661938E-01     2.3612750885E-01
     2.3584905660E-01     2.3557126031E-01     2.3529411765E-01     2.3501762632E-01
     2.3474178404E-01     2.3446658851E-01     2.3419203747E-01     2.3391812865E-01
     2.3364485981E-01     2.3337222870E-01     2.3310023310E-01     2.3282887078E-01
     2.3255813953E-01     2.3228803717E-01     2.3201856148E-01     2.3174971031E-01
     2.3148148148E-01     2.3121387283E-01     2.3094688222E-01     2.3068050750E-01
     2.3041474654E-01     2.3014959724E-01     2.2988505747E-01     2.2962112514E-01
     2.2935779816E-01     2.2909507445E-01     2.2883295194E-01     2.2857142857E-01
     2.2831050228E-01     2.2805017104E-01     2.2779043280E-01     2.2753128555E-01
     2.2727272727E-01     2.2701475596E-01     2.2675736961E-01     2.2650056625E-01
     2.2624434389E-01     2.2598870056E-01     2.2573363431E-01     2.2547914318E-01
     2.2522522522E-01     2.2497187851E-01     2.2471910112E-01     2.2446689113E-01
     2.2421524664E-01     2.2396416573E-01     2.2371364653E-01     2.2346368715E-01
     2.2321428571E-01     2.2296544036E-01     2.2271714922E-01     2.2246941046E-01
     2.2222222222E-01     2.2197558269E-01     2.2172949002E-01     2.2148394241E-01
     2.2123893805E-01     2.2099447514E-01     2.2075055188E-01     2.2050716648E-01
     2.2026431718E-01     2.2002200220E-01     2.1978021978E-01     2.1953896817E-01
     2.1929824561E-01     2.1905805038E-01     2.1881838074E-01     2.1857923497E-01
     2.1834061135E-01     2.1810250818E-01     2.1786492375E-01     2.1762785636E-01
     2.1739130435E-01     2.1715526601E-01     2.1691973970E-01     2.1668472373E-01
     2.1645021645E-01     2.1621621622E-01     2.1598272138E-01     2.1574973031E-01
     2.1551724138E-01     2.1528525296E-01     2.1505376344E-01     2.1482277121E-01
     2.1459227468E-01     2.1436227224E-01     2.1413276231E-01     2.1390374331E-01
     2.1367521367E-01     2.1344717182E-01     2.1321961620E-01     2.1299254526E-01
     2.1276595745E-01     2.1253985122E-01     2.1231422505E-01     2.1208907741E-01
     2.1186440678E-01     2.1164021164E-01     2.1141649049E-01     2.1119324182E-01
     2.1097046413E-01     2.1074815595E-01     2.1052631579E-01     2.1030494217E-01
     2.1008403361E-01     2.0986358867E-01     2.0964360587E-01     2.0942408377E-01
     2.0920502092E-01     2.0898641588E-01     2.0876826722E-01     2.0855057351E-01
     2.0833333333E-01     2.0811654526E-01     2.0790020790E-01     2.0768431983E-01
     2.0746887967E-01     2.0725388601E-01     2.0703933747E-01     2.0682523268E-01
     2.0661157025E-01     2.0639834881E-01     2.0618556701E-01     2.0597322348E-01
     2.0576131687E-01     2.0554984584E-01     2.0533880903E-01     2.0512820513E-01
     2.0491803279E-01     2.0470829068E-01     2.0449897750E-01     2.0429009193E-01
     2.0408163265E-01     2.0387359837E-01     2.0366598778E-01     2.0345879959E-01
     2.0325203252E-01     2.0304568528E-01     2.0283975659E-01     2.0263424519E-01
     2.0242914980E-01     2.0222446916E-01     2.0202020202E-01     2.0181634712E-01
     2.0161290323E-01     2.0140986908E-01     2.0120724346E-01     2.0100502512E-01
     2.0080321285E-01     2.0060180542E-01     2.0040080160E-01     2.0020020020E-01
     2.0000000000E-01     1.9980019980E-01     1.9960079840E-01     1.9940179462E-01
     1.9920318725E-01     1.9900497512E-01     1.9880715706E-01     1.9860973188E-01
     1.9841269841E-01     1.9821605550E-01     1.9801980198E-01     1.9782393670E-01
     1.9762845850E-01     1.9743336624E-01     1.9723865878E-01     1.9704433497E-01
     1.9685039370E-01     1.9665683382E-01     1.9646365422E-01     1.9627085378E-01
     1.9607843137E-01     1.9588638590E-01     1.9569471624E-01     1.9550342131E-01
     1.9531250000E-01     1.9512195122E-01     1.9493177388E-01     1.9474196689E-01
     1.9455252918E-01     1.9436345967E-01     1.9417475728E-01     1.9398642095E-01
     1.9379844961E-01     1.9361084221E-01     1.9342359768E-01     1.9323671498E-01
     1.9305019305E-01     1.9286403086E-01     1.9267822736E-01     1.9249278152E-01
     1.9230769231E-01     1.9212295869E-01     1.9193857965E-01     1.9175455417E-01
     1.9157088123E-01     1.9138755981E-01     1.9120458891E-01     1.9102196753E-01
     1.9083969466E-01     1.9065776930E-01     1.9047619048E-01     1.9029495718E-01
     1.9011406844E-01     1.8993352327E-01     1.8975332068E-01     1.8957345971E-01
     1.8939393939E-01     1.8921475875E-01     1.8903591682E-01     1.8885741265E-01
     1.8867924528E-01     1.8850141376E-01     1.8832391714E-01     1.8814675447E-01
     1.8796992481E-01     1.8779342723E-01     1.8761726079E-01     1.8744142455E-01
     1.8726591760E-01     1.8709073901E-01     1.8691588785E-01     1.8674136321E-01
     1.8656716418E-01     1.8639328984E-01     1.8621973929E-01     1.8604651163E-01
     1.8587360595E-01     1.8570102135E-01     1.8552875696E-01     1.8535681186E-01
     1.8518518518E-01     1.8501387604E-01     1.8484288355E-01     1.8467220683E-01
     1.8450184502E-01     1.8433179723E-01     1.8416206261E-01     1.8399264029E-01
     1.8382352941E-01     1.8365472911E-01     1.8348623853E-01     1.8331805683E-01
     1.8315018315E-01     1.8298261665E-01     1.8281535649E-01     1.8264840183E-01
     1.8248175182E-01     1.8231540565E-01     1.8214936248E-01     1.8198362147E-01
     1.8181818182E-01     1.8165304269E-01     1.8148820327E-01     1.8132366274E-01
     1.8115942029E-01     1.8099547511E-01     1.8083182640E-01     1.8066847335E-01
     1.8050541516E-01     1.8034265104E-01     1.8018018018E-01     1.8001800180E-01
     1.7985611511E-01     1.7969451932E-01     1.7953321364E-01     1.7937219731E-01
     1.7921146953E-01     1.7905102954E-01     1.7889087656E-01     1.7873100983E-01
     1.7857142857E-01     1.7841213202E-01     1.7825311943E-01     1.7809439003E-01
     1.7793594306E-01     1.7777777778E-01     1.7761989343E-01     1.7746228926E-01
     1.7730496454E-01     1.7714791851E-01     1.7699115044E-01     1.7683465959E-01
     1.7667844523E-01     1.7652250662E-01     1.7636684303E-01     1.7621145374E-01
     1.7605633803E-01     1.7590149516E-01     1.7574692443E-01     1.7559262511E-01
     1.7543859649E-01     1.7528483786E-01     1.7513134851E-01     1.7497812773E-01
     1.7482517482E-01     1.7467248908E-01     1.7452006981E-01     1.7436791630E-01
     1.7421602787E-01     1.7406440383E-01     1.7391304348E-01     1.7376194613E-01
     1.7361111111E-01     1.7346053773E-01     1.7331022530E-01     1.7316017316E-01
     1.7301038062E-01     1.7286084702E-01     1.7271157167E-01     1.7256255393E-01
     1.7241379310E-01     1.7226528854E-01     1.7211703959E-01     1.7196904557E-01
     1.7182130584E-01     1.7167381974E-01     1.7152658662E-01     1.7137960583E-01
     1.7123287671E-01     1.7108639863E-01     1.7094017094E-01     1.7079419300E-01
     1.7064846416E-01     1.7050298380E-01     1.7035775128E-01     1.7021276596E-01
     1.7006802721E-01     1.6992353441E-01     1.6977928693E-01     1.6963528414E-01
     1.6949152542E-01     1.6934801016E-01     1.6920473773E-01     1.6906170752E-01
     1.6891891892E-01     1.6877637131E-01     1.6863406408E-01     1.6849199663E-01
     1.6835016835E-01     1.6820857864E-01     1.6806722689E-01     1.6792611251E-01
     1.6778523490E-01     1.6764459346E-01     1.6750418760E-01     1.6736401674E-01
     1.6722408027E-01     1.6708437761E-01     1.6694490818E-01     1.6680567139E-01
     1.6666666667E-01     1.6652789342E-01     1.6638935108E-01     1.6625103907E-01
     1.6611295681E-01     1.6597510373E-01     1.6583747927E-01     1.6570008285E-01
     1.6556291391E-01     1.6542597188E-01     1.6528925620E-01     1.6515276631E-01
     1.6501650165E-01     1.6488046166E-01     1.6474464580E-01     1.6460905350E-01
     1.6447368421E-01     1.6433853739E-01     1.6420361248E-01     1.6406890894E-01
     1.6393442623E-01     1.6380016380E-01     1.6366612111E-01     1.6353229763E-01
     1.6339869281E-01     1.6326530612E-01     1.6313213703E-01     1.6299918500E-01
     1.6286644951E-01     1.6273393002E-01     1.6260162602E-01     1.6246953696E-01
     1.6233766234E-01     1.6220600162E-01     1.6207455429E-01     1.6194331984E-01
     1.6181229773E-01     1.6168148747E-01     1.6155088853E-01     1.6142050040E-01
     1.6129032258E-01     1.6116035455E-01     1.6103059581E-01     1.6090104586E-01
     1.6077170418E-01     1.6064257028E-01     1.6051364366E-01     1.6038492382E-01
     1.6025641026E-01     1.6012810248E-01     1.6000000000E-01     1.5987210232E-01
     1.5974440895E-01     1.5961691939E-01     1.5948963317E-01     1.5936254980E-01
     1.5923566879E-01     1.5910898966E-01     1.5898251192E-01     1.5885623511E-01
     1.5873015873E-01     1.5860428231E-01     1.5847860539E-01     1.5835312747E-01
     1.5822784810E-01     1.5810276680E-01     1.5797788310E-01     1.5785319653E-01
     1.5772870662E-01     1.5760441292E-01     1.5748031496E-01     1.5735641227E-01
     1.5723270440E-01     1.5710919089E-01     1.5698587127E-01     1.5686274510E-01
     1.5673981191E-01     1.5661707126E-01     1.5649452269E-01     1.5637216575E-01
     1.5625000000E-01     1.5612802498E-01     1.5600624025E-01     1.5588464536E-01
     1.5576323987E-01     1.5564202335E-01     1.5552099533E-01     1.5540015540E-01
     1.5527950310E-01     1.5515903801E-01     1.5503875969E-01     1.5491866770E-01
     1.5479876161E-01     1.5467904099E-01     1.5455950541E-01     1.5444015444E-01
     1.5432098765E-01     1.5420200463E-01     1.5408320493E-01     1.5396458814E-01
     1.5384615385E-01     1.5372790161E-01     1.5360983103E-01     1.5349194167E-01
     1.5337423313E-01     1.5325670498E-01     1.5313935681E-01     1.5302218822E-01
     1.5290519878E-01     1.5278838808E-01     1.5267175572E-01     1.5255530130E-01
     1.5243902439E-01     1.5232292460E-01     1.5220700152E-01     1.5209125475E-01
     1.5197568389E-01     1.5186028853E-01     1.5174506828E-01     1.5163002274E-01
     1.5151515151E-01     1.5140045420E-01     1.5128593041E-01     1.5117157974E-01
     1.5105740181E-01     1.5094339623E-01     1.5082956259E-01     1.5071590053E-01
     1.5060240964E-01     1.5048908954E-01     1.5037593985E-01     1.5026296018E-01
     1.5015015015E-01     1.5003750938E-01     1.4992503748E-01     1.4981273408E-01
     1.4970059880E-01     1.4958863126E-01     1.4947683109E-01     1.4936519791E-01
     1.4925373134E-01     1.4914243102E-01     1.4903129657E-01     1.4892032762E-01
     1.4880952381E-01     1.4869888476E-01     1.4858841010E-01     1.4847809948E-01
     1.4836795252E-01     1.4825796887E-01     1.4814814815E-01     1.4803849001E-01
     1.4792899408E-01     1.4781966001E-01     1.4771048744E-01     1.4760147601E-01
     1.4749262537E-01     1.4738393515E-01     1.4727540501E-01     1.4716703458E-01
     1.4705882353E-01     1.4695077149E-01     1.4684287812E-01     1.4673514307E-01
     1.4662756598E-01     1.4652014652E-01     1.4641288433E-01     1.4630577908E-01
     1.4619883041E-01     1.4609203798E-01     1.4598540146E-01     1.4587892050E-01
     1.4577259475E-01     1.4566642389E-01     1.4556040757E-01     1.4545454545E-01
     1.4534883721E-01     1.4524328250E-01     1.4513788099E-01     1.4503263234E-01
     1.4492753623E-01     1.4482259232E-01     1.4471780029E-01     1.4461315980E-01
     1.4450867052E-01     1.4440433213E-01     1.4430014430E-01     1.4419610670E-01
     1.4409221902E-01     1.4398848092E-01     1.4388489209E-01     1.4378145219E-01
     1.4367816092E-01     1.4357501795E-01     1.4347202295E-01     1.4336917563E-01
     1.4326647564E-01     1.4316392269E-01     1.4306151645E-01     1.4295925661E-01
     1.4285714286E-01     1.4275517487E-01     1.4265335235E-01     1.4255167498E-01
     1.4245014245E-01     1.4234875445E-01     1.4224751067E-01     1.4214641080E-01
     1.4204545454E-01     1.4194464159E-01     1.4184397163E-01     1.4174344437E-01
     1.4164305949E-01     1.4154281670E-01     1.4144271570E-01     1.4134275618E-01
     1.4124293785E-01     1.4114326041E-01     1.4104372355E-01     1.4094432699E-01
     1.4084507042E-01     1.4074595355E-01     1.4064697609E-01     1.4054813774E-01
     1.4044943820E-01     1.4035087719E-01     1.4025245442E-01     1.4015416959E-01
     1.4005602241E-01     1.3995801260E-01     1.3986013986E-01     1.3976240391E-01
     1.3966480447E-01     1.3956734124E-01     1.3947001395E-01     1.3937282230E-01
     1.3927576602E-01     1.3917884482E-01     1.3908205841E-01     1.3898540653E-01
     1.3888888889E-01     1.3879250520E-01     1.3869625520E-01     1.3860013860E-01
     1.3850415512E-01     1.3840830450E-01     1.3831258644E-01     1.3821700069E-01
     1.3812154696E-01     1.3802622498E-01     1.3793103448E-01     1.3783597519E-01
     1.3774104683E-01     1.3764624914E-01     1.3755158184E-01     1.3745704467E-01
     1.3736263736E-01     1.3726835964E-01     1.3717421125E-01     1.3708019191E-01
     1.3698630137E-01     1.3689253936E-01     1.3679890561E-01     1.3670539986E-01
     1.3661202186E-01     1.3651877133E-01     1.3642564802E-01     1.3633265167E-01
     1.3623978202E-01     1.3614703880E-01     1.3605442177E-01     1.3596193066E-01
     1.3586956522E-01     1.3577732519E-01     1.3568521031E-01     1.3559322034E-01
     1.3550135501E-01     1.3540961408E-01     1.3531799729E-01     1.3522650439E-01
     1.3513513513E-01     1.3504388926E-01     1.3495276653E-01     1.3486176669E-01
     1.3477088949E-01     1.3468013468E-01     1.3458950202E-01     1.3449899126E-01
     1.3440860215E-01     1.3431833445E-01     1.3422818792E-01     1.3413816231E-01
     1.3404825737E-01     1.3395847287E-01     1.3386880857E-01     1.3377926421E-01
     1.3368983957E-01     1.3360053440E-01     1.3351134846E-01     1.3342228152E-01
     1.3333333333E-01     1.3324450366E-01     1.3315579228E-01     1.3306719893E-01
     1.3297872340E-01     1.3289036545E-01     1.3280212483E-01     1.3271400133E-01
     1.3262599469E-01     1.3253810470E-01     1.3245033113E-01     1.3236267373E-01
     1.3227513227E-01     1.3218770654E-01     1.3210039630E-01     1.3201320132E-01
     1.3192612137E-01     1.3183915623E-01     1.3175230566E-01     1.3166556945E-01
     1.3157894737E-01     1.3149243918E-01     1.3140604468E-01     1.3131976362E-01
     1.3123359580E-01     1.3114754098E-01     1.3106159895E-01     1.3097576948E-01
     1.3089005236E-01     1.3080444735E-01     1.3071895425E-01     1.3063357283E-01
     1.3054830287E-01     1.3046314416E-01     1.3037809648E-01     1.3029315961E-01
     1.3020833333E-01     1.3012361744E-01     1.3003901170E-01     1.2995451592E-01
     1.2987012987E-01     1.2978585334E-01     1.2970168612E-01     1.2961762800E-01
     1.2953367876E-01     1.2944983819E-01     1.2936610608E-01     1.2928248222E-01
     1.2919896641E-01     1.2911555842E-01     1.2903225806E-01     1.2894906512E-01
     1.2886597938E-01     1.2878300064E-01     1.2870012870E-01     1.2861736334E-01
     1.2853470437E-01     1.2845215157E-01     1.2836970475E-01     1.2828736369E-01
     1.2820512820E-01     1.2812299808E-01     1.2804097311E-01     1.2795905310E-01
     1.2787723785E-01     1.2779552716E-01     1.2771392082E-01     1.2763241863E-01
     1.2755102041E-01     1.2746972594E-01     1.2738853503E-01     1.2730744749E-01
     1.2722646310E-01     1.2714558169E-01     1.2706480305E-01     1.2698412698E-01
     1.2690355330E-01     1.2682308180E-01     1.2674271229E-01     1.2666244458E-01
     1.2658227848E-01     1.2650221379E-01     1.2642225032E-01     1.2634238787E-01
     1.2626262626E-01     1.2618296530E-01     1.2610340479E-01     1.2602394455E-01
     1.2594458438E-01     1.2586532410E-01     1.2578616352E-01     1.2570710245E-01
     1.2562814070E-01     1.2554927809E-01     1.2547051443E-01     1.2539184953E-01
     1.2531328321E-01     1.2523481528E-01     1.2515644556E-01     1.2507817386E-01
     1.2500000000E-01     1.2492192380E-01     1.2484394507E-01     1.2476606363E-01
     1.2468827930E-01     1.2461059190E-01     1.2453300124E-01     1.2445550716E-01
     1.2437810945E-01     1.2430080795E-01     1.2422360248E-01     1.2414649286E-01
     1.2406947891E-01     1.2399256045E-01     1.2391573730E-01     1.2383900929E-01
     1.2376237624E-01     1.2368583797E-01     1.2360939431E-01     1.2353304509E-01
     1.2345679012E-01     1.2338062924E-01     1.2330456227E-01     1.2322858903E-01
     1.2315270936E-01     1.2307692308E-01     1.2300123001E-01     1.2292562999E-01
     1.2285012285E-01     1.2277470841E-01     1.2269938650E-01     1.2262415696E-01
     1.2254901961E-01     1.2247397428E-01     1.2239902081E-01     1.2232415902E-01
     1.2224938875E-01     1.2217470983E-01     1.2210012210E-01     1.2202562538E-01
     1.2195121951E-01     1.2187690433E-01     1.2180267966E-01     1.2172854534E-01
     1.2165450122E-01     1.2158054711E-01     1.2150668287E-01     1.2143290832E-01
     1.2135922330E-01     1.2128562765E-01     1.2121212121E-01     1.2113870382E-01
     1.2106537530E-01     1.2099213551E-01     1.2091898428E-01     1.2084592145E-01
     1.2077294686E-01     1.2070006035E-01     1.2062726176E-01     1.2055455093E-01
     1.2048192771E-01     1.2040939193E-01     1.2033694344E-01     1.2026458208E-01
     1.2019230769E-01     1.2012012012E-01     1.2004801921E-01     1.1997600480E-01
     1.1990407674E-01     1.1983223487E-01     1.1976047904E-01     1.1968880910E-01
     1.1961722488E-01     1.1954572624E-01     1.1947431302E-01     1.1940298507E-01
     1.1933174224E-01     1.1926058438E-01     1.1918951132E-01     1.1911852293E-01
     1.1904761905E-01     1.1897679952E-01     1.1890606421E-01     1.1883541295E-01
     1.1876484561E-01     1.1869436202E-01     1.1862396204E-01     1.1855364552E-01
     1.1848341232E-01     1.1841326228E-01     1.1834319527E-01     1.1827321112E-01
     1.1820330969E-01     1.1813349084E-01     1.1806375443E-01     1.1799410029E-01
     1.1792452830E-01     1.1785503830E-01     1.1778563015E-01     1.1771630371E-01
     1.1764705882E-01     1.1757789536E-01     1.1750881316E-01     1.1743981210E-01
     1.1737089202E-01     1.1730205279E-01     1.1723329426E-01     1.1716461629E-01
     1.1709601873E-01     1.1702750146E-01     1.1695906433E-01     1.1689070719E-01
     1.1682242991E-01     1.1675423234E-01     1.1668611435E-01     1.1661807580E-01
     1.1655011655E-01     1.1648223646E-01     1.1641443539E-01     1.1634671320E-01
     1.1627906977E-01     1.1621150494E-01     1.1614401858E-01     1.1607661056E-01
     1.1600928074E-01     1.1594202899E-01     1.1587485516E-01     1.1580775912E-01
     1.1574074074E-01     1.1567379988E-01     1.1560693642E-01     1.1554015020E-01
     1.1547344111E-01     1.1540680900E-01     1.1534025375E-01     1.1527377522E-01
     1.1520737327E-01     1.1514104778E-01     1.1507479862E-01     1.1500862565E-01
     1.1494252874E-01     1.1487650775E-01     1.1481056257E-01     1.1474469306E-01
     1.1467889908E-01     1.1461318052E-01     1.1454753723E-01     1.1448196909E-01
     1.1441647597E-01     1.1435105775E-01     1.1428571429E-01     1.1422044546E-01
     1.1415525114E-01     1.1409013120E-01     1.1402508552E-01     1.1396011396E-01
     1.1389521640E-01     1.1383039271E-01     1.1376564278E-01     1.1370096646E-01
     1.1363636364E-01     1.1357183418E-01     1.1350737798E-01     1.1344299489E-01
     1.1337868481E-01     1.1331444759E-01     1.1325028313E-01     1.1318619128E-01
     1.1312217195E-01     1.1305822499E-01     1.1299435028E-01     1.1293054771E-01
     1.1286681716E-01     1.1280315849E-01     1.1273957159E-01     1.1267605634E-01
     1.1261261261E-01     1.1254924029E-01     1.1248593926E-01     1.1242270939E-01
     1.1235955056E-01     1.1229646266E-01     1.1223344557E-01     1.1217049916E-01
     1.1210762332E-01     1.1204481793E-01     1.1198208287E-01     1.1191941802E-01
     1.1185682327E-01     1.1179429849E-01     1.1173184357E-01     1.1166945840E-01
     1.1160714286E-01     1.1154489682E-01     1.1148272018E-01     1.1142061281E-01
     1.1135857461E-01     1.1129660545E-01     1.1123470523E-01     1.1117287382E-01
     1.1111111111E-01     1.1104941699E-01     1.1098779134E-01     1.1092623405E-01
     1.1086474501E-01     1.1080332410E-01     1.1074197121E-01     1.1068068622E-01
     1.1061946903E-01     1.1055831951E-01     1.1049723757E-01     1.1043622308E-01
     1.1037527594E-01     1.1031439603E-01     1.1025358324E-01     1.1019283747E-01
     1.1013215859E-01     1.1007154650E-01     1.1001100110E-01     1.0995052226E-01
     1.0989010989E-01     1.0982976387E-01     1.0976948408E-01     1.0970927043E-01
     1.0964912281E-01     1.0958904110E-01     1.0952902519E-01     1.0946907499E-01
     1.0940919037E-01     1.0934937124E-01     1.0928961749E-01     1.0922992900E-01
     1.0917030568E-01     1.0911074741E-01     1.0905125409E-01     1.0899182561E-01
     1.0893246187E-01     1.0887316276E-01     1.0881392818E-01     1.0875475802E-01
     1.0869565217E-01     1.0863661054E-01     1.0857763301E-01     1.0851871948E-01
     1.0845986985E-01     1.0840108401E-01     1.0834236186E-01     1.0828370330E-01
     1.0822510822E-01     1.0816657653E-01     1.0810810811E-01     1.0804970286E-01
     1.0799136069E-01     1.0793308149E-01     1.0787486516E-01     1.0781671159E-01
     1.0775862069E-01     1.0770059235E-01     1.0764262648E-01     1.0758472297E-01
     1.0752688172E-01     1.0746910263E-01     1.0741138561E-01     1.0735373054E-01
     1.0729613734E-01     1.0723860590E-01     1.0718113612E-01     1.0712372791E-01
     1.0706638116E-01     1.0700909577E-01     1.0695187166E-01     1.0689470871E-01
     1.0683760684E-01     1.0678056594E-01     1.0672358591E-01     1.0666666667E-01
     1.0660980810E-01     1.0655301012E-01     1.0649627263E-01     1.0643959553E-01
     1.0638297872E-01     1.0632642212E-01     1.0626992561E-01     1.0621348911E-01
     1.0615711253E-01     1.0610079576E-01     1.0604453871E-01     1.0598834128E-01
     1.0593220339E-01     1.0587612493E-01     1.0582010582E-01     1.0576414595E-01
     1.0570824524E-01     1.0565240359E-01     1.0559662091E-01     1.0554089710E-01
     1.0548523207E-01     1.0542962572E-01     1.0537407798E-01     1.0531858873E-01
     1.0526315789E-01     1.0520778538E-01     1.0515247108E-01     1.0509721492E-01
     1.0504201681E-01     1.0498687664E-01     1.0493179433E-01     1.0487676980E-01
     1.0482180293E-01     1.0476689366E-01     1.0471204188E-01     1.0465724751E-01
     1.0460251046E-01     1.0454783063E-01     1.0449320794E-01     1.0443864230E-01
     1.0438413361E-01     1.0432968179E-01     1.0427528676E-01     1.0422094841E-01
     1.0416666667E-01     1.0411244144E-01     1.0405827263E-01     1.0400416017E-01
     1.0395010395E-01     1.0389610390E-01     1.0384215992E-01     1.0378827192E-01
     1.0373443983E-01     1.0368066356E-01     1.0362694300E-01     1.0357327809E-01
     1.0351966874E-01     1.0346611485E-01     1.0341261634E-01     1.0335917313E-01
     1.0330578512E-01     1.0325245225E-01     1.0319917441E-01     1.0314595152E-01
     1.0309278350E-01     1.0303967027E-01     1.0298661174E-01     1.0293360782E-01
     1.0288065844E-01     1.0282776350E-01     1.0277492292E-01     1.0272213662E-01
     1.0266940452E-01     1.0261672653E-01     1.0256410256E-01     1.0251153255E-01
     1.0245901639E-01     1.0240655402E-01     1.0235414534E-01     1.0230179028E-01
     1.0224948875E-01     1.0219724067E-01     1.0214504596E-01     1.0209290454E-01
     1.0204081633E-01     1.0198878123E-01     1.0193679918E-01     1.0188487010E-01
     1.0183299389E-01     1.0178117048E-01     1.0172939980E-01     1.0167768175E-01
     1.0162601626E-01     1.0157440325E-01     1.0152284264E-01     1.0147133435E-01
     1.0141987830E-01     1.0136847440E-01     1.0131712259E-01     1.0126582278E-01
     1.0121457490E-01     1.0116337886E-01     1.0111223458E-01     1.0106114199E-01
     1.0101010101E-01     1.0095911156E-01     1.0090817356E-01     1.0085728694E-01
     1.0080645161E-01     1.0075566751E-01     1.0070493454E-01     1.0065425264E-01
     1.0060362173E-01     1.0055304173E-01     1.0050251256E-01     1.0045203415E-01
     1.0040160643E-01     1.0035122930E-01     1.0030090271E-01     1.0025062657E-01
     1.0020040080E-01     1.0015022534E-01     1.0010010010E-01     1.0005002501E-01
     1.0000000000E-01     9.9950024987E-02     9.9900099900E-02     9.9850224663E-02
     9.9800399201E-02     9.9750623441E-02     9.9700897308E-02     9.9651220727E-02
     9.9601593625E-02     9.9552015928E-02     9.9502487562E-02     9.9453008453E-02
     9.9403578528E-02     9.9354197714E-02     9.9304865938E-02     9.9255583126E-02
     9.9206349206E-02     9.9157164105E-02     9.9108027750E-02     9.9058940069E-02
     9.9009900990E-02     9.8960910440E-02     9.8911968348E-02     9.8863074641E-02
     9.8814229249E-02     9.8765432098E-02     9.8716683119E-02     9.8667982239E-02
     9.8619329388E-02     9.8570724494E-02     9.8522167487E-02     9.8473658296E-02
     9.8425196850E-02     9.8376783079E-02     9.8328416912E-02     9.8280098280E-02
     9.8231827112E-02     9.8183603338E-02     9.8135426889E-02     9.8087297695E-02
     9.8039215686E-02     9.7991180793E-02     9.7943192948E-02     9.7895252080E-02
     9.7847358121E-02     9.7799511002E-02     9.7751710655E-02     9.7703957010E-02
     9.7656250000E-02     9.7608589555E-02     9.7560975609E-02     9.7513408093E-02
     9.7465886939E-02     9.7418412079E-02     9.7370983447E-02     9.7323600973E-02
     9.7276264591E-02     9.7228974234E-02     9.7181729834E-02     9.7134531325E-02
     9.7087378640E-02     9.7040271712E-02     9.6993210475E-02     9.6946194861E-02
     9.6899224806E-02     9.6852300242E-02     9.6805421103E-02     9.6758587324E-02
     9.6711798839E-02     9.6665055582E-02     9.6618357488E-02     9.6571704490E-02
     9.6525096525E-02     9.6478533526E-02     9.6432015429E-02     9.6385542168E-02
     9.6339113680E-02     9.6292729899E-02     9.6246390760E-02     9.6200096200E-02
     9.6153846153E-02     9.6107640557E-02     9.6061479346E-02     9.6015362458E-02
     9.5969289827E-02     9.5923261391E-02     9.5877277085E-02     9.5831336847E-02
     9.5785440613E-02     9.5739588319E-02     9.5693779904E-02     9.5648015303E-02
     9.5602294455E-02     9.5556617295E-02     9.5510983763E-02     9.5465393794E-02
     9.5419847328E-02     9.5374344301E-02     9.5328884652E-02     9.5283468318E-02
     9.5238095238E-02     9.5192765349E-02     9.5147478591E-02     9.5102234902E-02
     9.5057034220E-02     9.5011876484E-02     9.4966761633E-02     9.4921689606E-02
     9.4876660341E-02     9.4831673779E-02     9.4786729857E-02     9.4741828517E-02
     9.4696969697E-02     9.4652153336E-02     9.4607379375E-02     9.4562647754E-02
     9.4517958412E-02     9.4473311289E-02     9.4428706326E-02     9.4384143464E-02
     9.4339622641E-02     9.4295143800E-02     9.4250706880E-02     9.4206311823E-02
     9.4161958568E-02     9.4117647058E-02     9.4073377234E-02     9.4029149036E-02
     9.3984962406E-02     9.3940817285E-02     9.3896713615E-02     9.3852651337E-02
     9.3808630394E-02     9.3764650726E-02     9.3720712277E-02     9.3676814988E-02
     9.3632958801E-02     9.3589143659E-02     9.3545369504E-02     9.3501636278E-02
     9.3457943925E-02     9.3414292386E-02     9.3370681606E-02     9.3327111526E-02
     9.3283582089E-02     9.3240093240E-02     9.3196644920E-02     9.3153237075E-02
     9.3109869646E-02     9.3066542578E-02     9.3023255814E-02     9.2980009298E-02
     9.2936802974E-02     9.2893636786E-02     9.2850510677E-02     9.2807424594E-02
     9.2764378478E-02     9.2721372276E-02     9.2678405931E-02     9.2635479388E-02
     9.2592592592E-02     9.2549745488E-02     9.2506938020E-02     9.2464170134E-02
     9.2421441774E-02     9.2378752886E-02     9.2336103416E-02     9.2293493308E-02
     9.2250922509E-02     9.2208390963E-02     9.2165898617E-02     9.2123445416E-02
     9.2081031307E-02     9.2038656235E-02     9.1996320147E-02     9.1954022988E-02
     9.1911764706E-02     9.1869545245E-02     9.1827364554E-02     9.1785222579E-02
     9.1743119266E-02     9.1701054562E-02     9.1659028414E-02     9.1617040769E-02
     9.1575091575E-02     9.1533180778E-02     9.1491308325E-02     9.1449474165E-02
     9.1407678245E-02     9.1365920511E-02     9.1324200913E-02     9.1282519397E-02
     9.1240875912E-02     9.1199270405E-02     9.1157702826E-02     9.1116173120E-02
     9.1074681238E-02     9.1033227128E-02     9.0991810737E-02     9.0950432014E-02
     9.0909090909E-02     9.0867787369E-02     9.0826521344E-02     9.0785292782E-02
     9.0744101633E-02     9.0702947845E-02     9.0661831369E-02     9.0620752152E-02
     9.0579710145E-02     9.0538705296E-02     9.0497737556E-02     9.0456806874E-02
     9.0415913200E-02     9.0375056484E-02     9.0334236675E-02     9.0293453724E-02
     9.0252707581E-02     9.0211998195E-02     9.0171325518E-02     9.0130689499E-02
     9.0090090090E-02     9.0049527240E-02     9.0009000900E-02     8.9968511021E-02
     8.9928057554E-02     8.9887640449E-02     8.9847259658E-02     8.9806915132E-02
     8.9766606822E-02     8.9726334679E-02     8.9686098654E-02     8.9645898700E-02
     8.9605734767E-02     8.9565606807E-02     8.9525514771E-02     8.9485458613E-02
     8.9445438282E-02     8.9405453732E-02     8.9365504915E-02     8.9325591782E-02
     8.9285714285E-02     8.9245872378E-02     8.9206066012E-02     8.9166295140E-02
     8.9126559714E-02     8.9086859688E-02     8.9047195013E-02     8.9007565643E-02
     8.8967971530E-02     8.8928412627E-02     8.8888888889E-02     8.8849400266E-02
     8.8809946714E-02     8.8770528184E-02     8.8731144631E-02     8.8691796009E-02
     8.8652482269E-02     8.8613203367E-02     8.8573959256E-02     8.8534749889E-02
     8.8495575221E-02     8.8456435205E-02     8.8417329796E-02     8.8378258948E-02
     8.8339222614E-02     8.8300220750E-02     8.8261253309E-02     8.8222320247E-02
     8.8183421516E-02     8.8144557073E-02     8.8105726872E-02     8.8066930867E-02
     8.8028169014E-02     8.7989441267E-02     8.7950747581E-02     8.7912087912E-02
     8.7873462214E-02     8.7834870443E-02     8.7796312555E-02     8.7757788503E-02
     8.7719298245E-02     8.7680841736E-02     8.7642418930E-02     8.7604029785E-02
     8.7565674255E-02     8.7527352297E-02     8.7489063867E-02     8.7450808920E-02
     8.7412587412E-02     8.7374399301E-02     8.7336244541E-02     8.7298123090E-02
     8.7260034904E-02     8.7221979939E-02     8.7183958151E-02     8.7145969499E-02
     8.7108013937E-02     8.7070091423E-02     8.7032201914E-02     8.6994345367E-02
     8.6956521739E-02     8.6918730986E-02     8.6880973067E-02     8.6843247937E-02
     8.6805555555E-02     8.6767895878E-02     8.6730268863E-02     8.6692674469E-02
     8.6655112651E-02     8.6617583369E-02     8.6580086580E-02     8.6542622241E-02
     8.6505190311E-02     8.6467790748E-02     8.6430423509E-02     8.6393088553E-02
     8.6355785837E-02     8.6318515321E-02     8.6281276963E-02     8.6244070720E-02
     8.6206896551E-02     8.6169754416E-02     8.6132644272E-02     8.6095566078E-02
     8.6058519793E-02     8.6021505376E-02     8.5984522786E-02     8.5947571981E-02
     8.5910652921E-02     8.5873765564E-02     8.5836909871E-02     8.5800085800E-02
     8.5763293310E-02     8.5726532361E-02     8.5689802913E-02     8.5653104925E-02
     8.5616438356E-02     8.5579803166E-02     8.5543199315E-02     8.5506626763E-02
     8.5470085470E-02     8.5433575395E-02     8.5397096498E-02     8.5360648741E-02
     8.5324232082E-02     8.5287846482E-02     8.5251491901E-02     8.5215168300E-02
     8.5178875639E-02     8.5142613878E-02     8.5106382978E-02     8.5070182901E-02
     8.5034013605E-02     8.4997875053E-02     8.4961767204E-02     8.4925690021E-02
     8.4889643463E-02     8.4853627492E-02     8.4817642069E-02     8.4781687155E-02
     8.4745762712E-02     8.4709868699E-02     8.4674005080E-02     8.4638171815E-02
     8.4602368866E-02     8.4566596194E-02     8.4530853761E-02     8.4495141529E-02
     8.4459459459E-02     8.4423807513E-02     8.4388185654E-02     8.4352593842E-02
     8.4317032040E-02     8.4281500210E-02     8.4245998315E-02     8.4210526315E-02
     8.4175084175E-02     8.4139671855E-02     8.4104289318E-02     8.4068936528E-02
     8.4033613445E-02     8.3998320033E-02     8.3963056255E-02     8.3927822073E-02
     8.3892617449E-02     8.3857442348E-02     8.3822296731E-02     8.3787180561E-02
     8.3752093802E-02     8.3717036417E-02     8.3682008368E-02     8.3647009619E-02
     8.3612040133E-02     8.3577099874E-02     8.3542188805E-02     8.3507306889E-02
     8.3472454090E-02     8.3437630371E-02     8.3402835696E-02     8.3368070029E-02
     8.3333333333E-02     8.3298625572E-02     8.3263946711E-02     8.3229296712E-02
     8.3194675540E-02     8.3160083160E-02     8.3125519534E-02     8.3090984628E-02
     8.3056478405E-02     8.3022000830E-02     8.2987551867E-02     8.2953131480E-02
     8.2918739635E-02     8.2884376295E-02     8.2850041425E-02     8.2815734989E-02
     8.2781456953E-02     8.2747207281E-02     8.2712985938E-02     8.2678792889E-02
     8.2644628099E-02     8.2610491532E-02     8.2576383154E-02     8.2542302930E-02
     8.2508250825E-02     8.2474226804E-02     8.2440230832E-02     8.2406262876E-02
     8.2372322899E-02     8.2338410868E-02     8.2304526749E-02     8.2270670506E-02
     8.2236842105E-02     8.2203041512E-02     8.2169268693E-02     8.2135523614E-02
     8.2101806239E-02     8.2068116536E-02     8.2034454471E-02     8.2000820008E-02
     8.1967213114E-02     8.1933633756E-02     8.1900081900E-02     8.1866557511E-02
     8.1833060556E-02     8.1799591002E-02     8.1766148814E-02     8.1732733960E-02
     8.1699346405E-02     8.1665986116E-02     8.1632653061E-02     8.1599347205E-02
     8.1566068515E-02     8.1532816959E-02     8.1499592502E-02     8.1466395112E-02
     8.1433224755E-02     8.1400081400E-02     8.1366965012E-02     8.1333875559E-02
     8.1300813008E-02     8.1267777326E-02     8.1234768481E-02     8.1201786439E-02
     8.1168831169E-02     8.1135902637E-02     8.1103000811E-02     8.1070125658E-02
     8.1037277147E-02     8.1004455245E-02     8.0971659919E-02     8.0938891137E-02
     8.0906148867E-02     8.0873433077E-02     8.0840743735E-02     8.0808080808E-02
     8.0775444265E-02     8.0742834073E-02     8.0710250201E-02     8.0677692618E-02
     8.0645161290E-02     8.0612656187E-02     8.0580177276E-02     8.0547724526E-02
     8.0515297906E-02     8.0482897384E-02     8.0450522928E-02     8.0418174507E-02
     8.0385852090E-02     8.0353555645E-02     8.0321285140E-02     8.0289040546E-02
     8.0256821830E-02     8.0224628961E-02     8.0192461908E-02     8.0160320641E-02
     8.0128205128E-02     8.0096115338E-02     8.0064051241E-02     8.0032012805E-02
     8.0000000000E-02     7.9968012795E-02     7.9936051159E-02     7.9904115062E-02
     7.9872204473E-02     7.9840319361E-02     7.9808459696E-02     7.9776625448E-02
     7.9744816587E-02     7.9713033081E-02     7.9681274900E-02     7.9649542015E-02
     7.9617834395E-02     7.9586152009E-02     7.9554494829E-02     7.9522862823E-02
     7.9491255962E-02     7.9459674215E-02     7.9428117553E-02     7.9396585946E-02
     7.9365079365E-02     7.9333597778E-02     7.9302141157E-02     7.9270709473E-02
     7.9239302694E-02     7.9207920792E-02     7.9176563737E-02     7.9145231499E-02
     7.9113924050E-02     7.9082641360E-02     7.9051383399E-02     7.9020150138E-02
     7.8988941548E-02     7.8957757599E-02     7.8926598263E-02     7.8895463511E-02
     7.8864353312E-02     7.8833267639E-02     7.8802206461E-02     7.8771169752E-02
     7.8740157480E-02     7.8709169618E-02     7.8678206137E-02     7.8647267007E-02
     7.8616352201E-02     7.8585461689E-02     7.8554595444E-02     7.8523753435E-02
     7.8492935635E-02     7.8462142016E-02     7.8431372549E-02     7.8400627205E-02
     7.8369905956E-02     7.8339208774E-02     7.8308535630E-02     7.8277886497E-02
     7.8247261346E-02     7.8216660148E-02     7.8186082877E-02     7.8155529503E-02
     7.8125000000E-02     7.8094494338E-02     7.8064012490E-02     7.8033554428E-02
     7.8003120124E-02     7.7972709551E-02     7.7942322681E-02     7.7911959485E-02
     7.7881619937E-02     7.7851304009E-02     7.7821011673E-02     7.7790742901E-02
     7.7760497667E-02     7.7730275942E-02     7.7700077700E-02     7.7669902912E-02
     7.7639751552E-02     7.7609623593E-02     7.7579519007E-02     7.7549437766E-02
     7.7519379845E-02     7.7489345215E-02     7.7459333849E-02     7.7429345722E-02
     7.7399380805E-02     7.7369439071E-02     7.7339520495E-02     7.7309625048E-02
     7.7279752704E-02     7.7249903437E-02     7.7220077220E-02     7.7190274025E-02
     7.7160493827E-02     7.7130736598E-02     7.7101002313E-02     7.7071290944E-02
     7.7041602465E-02     7.7011936850E-02     7.6982294072E-02     7.6952674105E-02
     7.6923076923E-02     7.6893502499E-02     7.6863950807E-02     7.6834421821E-02
     7.6804915514E-02     7.6775431861E-02     7.6745970836E-02     7.6716532412E-02
     7.6687116564E-02     7.6657723265E-02     7.6628352490E-02     7.6599004213E-02
     7.6569678407E-02     7.6540375048E-02     7.6511094108E-02     7.6481835564E-02
     7.6452599388E-02     7.6423385556E-02     7.6394194041E-02     7.6365024818E-02
     7.6335877862E-02     7.6306753147E-02     7.6277650648E-02     7.6248570339E-02
     7.6219512195E-02     7.6190476190E-02     7.6161462300E-02     7.6132470498E-02
     7.6103500761E-02     7.6074553062E-02     7.6045627376E-02     7.6016723679E-02
     7.5987841945E-02     7.5958982149E-02     7.5930144267E-02     7.5901328273E-02
     7.5872534142E-02     7.5843761850E-02     7.5815011372E-02     7.5786282683E-02
     7.5757575757E-02     7.5728890571E-02     7.5700227100E-02     7.5671585319E-02
     7.5642965204E-02     7.5614366729E-02     7.5585789871E-02     7.5557234605E-02
     7.5528700906E-02     7.5500188750E-02     7.5471698113E-02     7.5443228970E-02
     7.5414781297E-02     7.5386355069E-02     7.5357950263E-02     7.5329566855E-02
     7.5301204819E-02     7.5272864132E-02     7.5244544770E-02     7.5216246709E-02
     7.5187969925E-02     7.5159714393E-02     7.5131480090E-02     7.5103266992E-02
     7.5075075075E-02     7.5046904315E-02     7.5018754688E-02     7.4990626171E-02
     7.4962518740E-02     7.4934432371E-02     7.4906367041E-02     7.4878322725E-02
     7.4850299401E-02     7.4822297044E-02     7.4794315632E-02     7.4766355140E-02
     7.4738415545E-02     7.4710496825E-02     7.4682598954E-02     7.4654721911E-02
     7.4626865671E-02     7.4599030212E-02     7.4571215511E-02     7.4543421543E-02
     7.4515648286E-02     7.4487895717E-02     7.4460163812E-02     7.4432452549E-02
     7.4404761904E-02     7.4377091855E-02     7.4349442379E-02     7.4321813452E-02
     7.4294205052E-02     7.4266617155E-02     7.4239049740E-02     7.4211502783E-02
     7.4183976261E-02     7.4156470152E-02     7.4128984433E-02     7.4101519081E-02
     7.4074074074E-02     7.4046649389E-02     7.4019245003E-02     7.3991860895E-02
     7.3964497041E-02     7.3937153419E-02     7.3909830007E-02     7.3882526782E-02
     7.3855243722E-02     7.3827980804E-02     7.3800738007E-02     7.3773515308E-02
     7.3746312684E-02     7.3719130114E-02     7.3691967575E-02     7.3664825046E-02
     7.3637702503E-02     7.3610599926E-02     7.3583517292E-02     7.3556454579E-02
     7.3529411764E-02     7.3502388827E-02     7.3475385745E-02     7.3448402497E-02
     7.3421439060E-02     7.3394495413E-02     7.3367571533E-02     7.3340667400E-02
     7.3313782991E-02     7.3286918285E-02     7.3260073260E-02     7.3233247894E-02
     7.3206442167E-02     7.3179656055E-02     7.3152889539E-02     7.3126142596E-02
     7.3099415204E-02     7.3072707344E-02     7.3046018992E-02     7.3019350127E-02
     7.2992700730E-02     7.2966070777E-02     7.2939460248E-02     7.2912869121E-02
     7.2886297376E-02     7.2859744991E-02     7.2833211944E-02     7.2806698216E-02
     7.2780203784E-02     7.2753728628E-02     7.2727272727E-02     7.2700836059E-02
     7.2674418604E-02     7.2648020341E-02     7.2621641249E-02     7.2595281306E-02
     7.2568940493E-02     7.2542618788E-02     7.2516316171E-02     7.2490032620E-02
     7.2463768116E-02     7.2437522636E-02     7.2411296162E-02     7.2385088671E-02
     7.2358900144E-02     7.2332730560E-02     7.2306579898E-02     7.2280448138E-02
     7.2254335260E-02     7.2228241242E-02     7.2202166065E-02     7.2176109707E-02
     7.2150072150E-02     7.2124053372E-02     7.2098053352E-02     7.2072072072E-02
     7.2046109510E-02     7.2020165646E-02     7.1994240460E-02     7.1968333933E-02
     7.1942446043E-02     7.1916576771E-02     7.1890726096E-02     7.1864893999E-02
     7.1839080459E-02     7.1813285458E-02     7.1787508973E-02     7.1761750986E-02
     7.1736011477E-02     7.1710290426E-02     7.1684587813E-02     7.1658903618E-02
     7.1633237822E-02     7.1607590404E-02     7.1581961345E-02     7.1556350626E-02
     7.1530758226E-02     7.1505184126E-02     7.1479628306E-02     7.1454090746E-02
     7.1428571428E-02     7.1403070332E-02     7.1377587437E-02     7.1352122725E-02
     7.1326676177E-02     7.1301247772E-02     7.1275837491E-02     7.1250445315E-02
     7.1225071225E-02     7.1199715201E-02     7.1174377224E-02     7.1149057275E-02
     7.1123755334E-02     7.1098471383E-02     7.1073205401E-02     7.1047957371E-02
     7.1022727272E-02     7.0997515087E-02     7.0972320795E-02     7.0947144377E-02
     7.0921985815E-02     7.0896845090E-02     7.0871722183E-02     7.0846617074E-02
     7.0821529745E-02     7.0796460177E-02     7.0771408351E-02     7.0746374248E-02
     7.0721357850E-02     7.0696359137E-02     7.0671378092E-02     7.0646414694E-02
     7.0621468926E-02     7.0596540769E-02     7.0571630204E-02     7.0546737213E-02
     7.0521861777E-02     7.0497003877E-02     7.0472163495E-02     7.0447340613E-02
     7.0422535211E-02     7.0397747272E-02     7.0372976777E-02     7.0348223707E-02
     7.0323488045E-02     7.0298769771E-02     7.0274068868E-02     7.0249385318E-02
     7.0224719101E-02     7.0200070200E-02     7.0175438596E-02     7.0150824272E-02
     7.0126227209E-02     7.0101647388E-02     7.0077084793E-02     7.0052539404E-02
     7.0028011204E-02     7.0003500175E-02     6.9979006298E-02     6.9954529556E-02
     6.9930069930E-02     6.9905627403E-02     6.9881201956E-02     6.9856793573E-02
     6.9832402234E-02     6.9808027923E-02     6.9783670621E-02     6.9759330310E-02
     6.9735006973E-02     6.9710700592E-02     6.9686411150E-02     6.9662138627E-02
     6.9637883008E-02     6.9613644274E-02     6.9589422408E-02     6.9565217391E-02
     6.9541029207E-02     6.9516857838E-02     6.9492703266E-02     6.9468565474E-02
     6.9444444444E-02     6.9420340159E-02     6.9396252602E-02     6.9372181755E-02
     6.9348127600E-02     6.9324090121E-02     6.9300069300E-02     6.9276065119E-02
     6.9252077562E-02     6.9228106611E-02     6.9204152249E-02     6.9180214458E-02
     6.9156293222E-02     6.9132388524E-02     6.9108500345E-02     6.9084628670E-02
     6.9060773480E-02     6.9036934760E-02     6.9013112491E-02     6.8989306657E-02
     6.8965517241E-02     6.8941744226E-02     6.8917987594E-02     6.8894247330E-02
     6.8870523416E-02     6.8846815834E-02     6.8823124570E-02     6.8799449604E-02
     6.8775790921E-02     6.8752148504E-02     6.8728522336E-02     6.8704912401E-02
     6.8681318681E-02     6.8657741160E-02     6.8634179821E-02     6.8610634648E-02
     6.8587105624E-02     6.8563592732E-02     6.8540095956E-02     6.8516615279E-02
     6.8493150685E-02     6.8469702157E-02     6.8446269678E-02     6.8422853233E-02
     6.8399452804E-02     6.8376068376E-02     6.8352699931E-02     6.8329347454E-02
     6.8306010929E-02     6.8282690338E-02     6.8259385665E-02     6.8236096895E-02
     6.8212824011E-02     6.8189566996E-02     6.8166325835E-02     6.8143100511E-02
     6.8119891008E-02     6.8096697310E-02     6.8073519401E-02     6.8050357264E-02
     6.8027210884E-02     6.8004080245E-02     6.7980965329E-02     6.7957866123E-02
     6.7934782608E-02     6.7911714771E-02     6.7888662593E-02     6.7865626060E-02
     6.7842605156E-02     6.7819599864E-02     6.7796610169E-02     6.7773636055E-02
     6.7750677507E-02     6.7727734507E-02     6.7704807041E-02     6.7681895093E-02
     6.7658998647E-02     6.7636117687E-02     6.7613252197E-02     6.7590402163E-02
     6.7567567567E-02     6.7544748396E-02     6.7521944632E-02     6.7499156260E-02
     6.7476383266E-02     6.7453625632E-02     6.7430883344E-02     6.7408156387E-02
     6.7385444744E-02     6.7362748400E-02     6.7340067340E-02     6.7317401548E-02
     6.7294751009E-02     6.7272115708E-02     6.7249495629E-02     6.7226890756E-02
     6.7204301075E-02     6.7181726570E-02     6.7159167226E-02     6.7136623028E-02
     6.7114093959E-02     6.7091580006E-02     6.7069081153E-02     6.7046597385E-02
     6.7024128686E-02     6.7001675042E-02     6.6979236436E-02     6.6956812855E-02
     6.6934404284E-02     6.6912010706E-02     6.6889632107E-02     6.6867268472E-02
     6.6844919786E-02     6.6822586034E-02     6.6800267201E-02     6.6777963272E-02
     6.6755674232E-02     6.6733400066E-02     6.6711140760E-02     6.6688896298E-02
     6.6666666666E-02     6.6644451849E-02     6.6622251832E-02     6.6600066600E-02
     6.6577896138E-02     6.6555740432E-02     6.6533599467E-02     6.6511473229E-02
     6.6489361702E-02     6.6467264872E-02     6.6445182724E-02     6.6423115244E-02
     6.6401062417E-02     6.6379024228E-02     6.6357000663E-02     6.6334991708E-02
     6.6312997347E-02     6.6291017567E-02     6.6269052352E-02     6.6247101689E-02
     6.6225165563E-02     6.6203243959E-02     6.6181336863E-02     6.6159444260E-02
     6.6137566137E-02     6.6115702479E-02     6.6093853271E-02     6.6072018500E-02
     6.6050198150E-02     6.6028392208E-02     6.6006600660E-02     6.5984823490E-02
     6.5963060686E-02     6.5941312232E-02     6.5919578114E-02     6.5897858319E-02
     6.5876152832E-02     6.5854461640E-02     6.5832784727E-02     6.5811122079E-02
     6.5789473684E-02     6.5767839526E-02     6.5746219592E-02     6.5724613868E-02
     6.5703022339E-02     6.5681444992E-02     6.5659881812E-02     6.5638332786E-02
     6.5616797900E-02     6.5595277140E-02     6.5573770492E-02     6.5552277941E-02
     6.5530799475E-02     6.5509335080E-02     6.5487884741E-02     6.5466448445E-02
     6.5445026178E-02     6.5423617926E-02     6.5402223675E-02     6.5380843413E-02
     6.5359477124E-02     6.5338124796E-02     6.5316786414E-02     6.5295461965E-02
     6.5274151436E-02     6.5252854812E-02     6.5231572081E-02     6.5210303228E-02
     6.5189048240E-02     6.5167807103E-02     6.5146579804E-02     6.5125366330E-02
     6.5104166666E-02     6.5082980800E-02     6.5061808718E-02     6.5040650406E-02
     6.5019505851E-02     6.4998375040E-02     6.4977257959E-02     6.4956154595E-02
     6.4935064935E-02     6.4913988964E-02     6.4892926671E-02     6.4871878041E-02
     6.4850843061E-02     6.4829821718E-02     6.4808813998E-02     6.4787819890E-02
     6.4766839378E-02     6.4745872450E-02     6.4724919094E-02     6.4703979294E-02
     6.4683053040E-02     6.4662140317E-02     6.4641241112E-02     6.4620355412E-02
     6.4599483204E-02     6.4578624475E-02     6.4557779212E-02     6.4536947402E-02
     6.4516129032E-02     6.4495324089E-02     6.4474532559E-02     6.4453754431E-02
     6.4432989690E-02     6.4412238325E-02     6.4391500322E-02     6.4370775668E-02
     6.4350064350E-02     6.4329366355E-02     6.4308681672E-02     6.4288010286E-02
     6.4267352185E-02     6.4246707356E-02     6.4226075787E-02     6.4205457464E-02
     6.4184852375E-02     6.4164260507E-02     6.4143681847E-02     6.4123116383E-02
     6.4102564102E-02     6.4082024992E-02     6.4061499039E-02     6.4040986231E-02
     6.4020486555E-02     6.4000000000E-02     6.3979526551E-02     6.3959066197E-02
     6.3938618926E-02     6.3918184723E-02     6.3897763578E-02     6.3877355477E-02
     6.3856960408E-02     6.3836578359E-02     6.3816209317E-02     6.3795853269E-02
     6.3775510204E-02     6.3755180108E-02     6.3734862970E-02     6.3714558776E-02
     6.3694267516E-02     6.3673989175E-02     6.3653723743E-02     6.3633471206E-02
     6.3613231552E-02     6.3593004769E-02     6.3572790845E-02     6.3552589768E-02
     6.3532401525E-02     6.3512226103E-02     6.3492063492E-02     6.3471913678E-02
     6.3451776649E-02     6.3431652394E-02     6.3411540900E-02     6.3391442155E-02
     6.3371356147E-02     6.3351282863E-02     6.3331222292E-02     6.3311174422E-02
     6.3291139240E-02     6.3271116735E-02     6.3251106894E-02     6.3231109706E-02
     6.3211125158E-02     6.3191153238E-02     6.3171193935E-02     6.3151247237E-02
     6.3131313131E-02     6.3111391606E-02     6.3091482650E-02     6.3071586250E-02
     6.3051702396E-02     6.3031831074E-02     6.3011972274E-02     6.2992125984E-02
     6.2972292191E-02     6.2952470884E-02     6.2932662051E-02     6.2912865681E-02
     6.2893081761E-02     6.2873310280E-02     6.2853551225E-02     6.2833804587E-02
     6.2814070352E-02     6.2794348508E-02     6.2774639046E-02     6.2754941951E-02
     6.2735257214E-02     6.2715584823E-02     6.2695924765E-02     6.2676277029E-02
     6.2656641604E-02     6.2637018478E-02     6.2617407639E-02     6.2597809076E-02
     6.2578222778E-02     6.2558648733E-02     6.2539086929E-02     6.2519537355E-02
     6.2500000000E-02     6.2480474851E-02     6.2460961899E-02     6.2441461130E-02
     6.2421972534E-02     6.2402496100E-02     6.2383031815E-02     6.2363579669E-02
     6.2344139651E-02     6.2324711748E-02     6.2305295950E-02     6.2285892245E-02
     6.2266500622E-02     6.2247121070E-02     6.2227753578E-02     6.2208398133E-02
     6.2189054726E-02     6.2169723344E-02     6.2150403977E-02     6.2131096614E-02
     6.2111801242E-02     6.2092517851E-02     6.2073246431E-02     6.2053986968E-02
     6.2034739454E-02     6.2015503876E-02     6.1996280223E-02     6.1977068484E-02
     6.1957868649E-02     6.1938680706E-02     6.1919504644E-02     6.1900340452E-02
     6.1881188119E-02     6.1862047634E-02     6.1842918986E-02     6.1823802164E-02
     6.1804697157E-02     6.1785603954E-02     6.1766522545E-02     6.1747452917E-02
     6.1728395061E-02     6.1709348966E-02     6.1690314620E-02     6.1671292013E-02
     6.1652281134E-02     6.1633281972E-02     6.1614294516E-02     6.1595318756E-02
     6.1576354680E-02     6.1557402277E-02     6.1538461538E-02     6.1519532451E-02
     6.1500615006E-02     6.1481709191E-02     6.1462814997E-02     6.1443932411E-02
     6.1425061425E-02     6.1406202026E-02     6.1387354205E-02     6.1368517950E-02
     6.1349693251E-02     6.1330880098E-02     6.1312078479E-02     6.1293288385E-02
     6.1274509804E-02     6.1255742726E-02     6.1236987140E-02     6.1218243036E-02
     6.1199510404E-02     6.1180789232E-02     6.1162079510E-02     6.1143381229E-02
     6.1124694376E-02     6.1106018943E-02     6.1087354917E-02     6.1068702290E-02
     6.1050061050E-02     6.1031431187E-02     6.1012812690E-02     6.0994205550E-02
     6.0975609756E-02     6.0957025297E-02     6.0938452163E-02     6.0919890344E-02
     6.0901339829E-02     6.0882800609E-02     6.0864272672E-02     6.0845756008E-02
     6.0827250608E-02     6.0808756461E-02     6.0790273556E-02     6.0771801884E-02
     6.0753341434E-02     6.0734892195E-02     6.0716454159E-02     6.0698027314E-02
     6.0679611650E-02     6.0661207158E-02     6.0642813826E-02     6.0624431646E-02
     6.0606060606E-02     6.0587700697E-02     6.0569351908E-02     6.0551014229E-02
     6.0532687651E-02     6.0514372163E-02     6.0496067755E-02     6.0477774418E-02
     6.0459492140E-02     6.0441220912E-02     6.0422960725E-02     6.0404711567E-02
     6.0386473430E-02     6.0368246302E-02     6.0350030175E-02     6.0331825037E-02
     6.0313630880E-02     6.0295447693E-02     6.0277275467E-02     6.0259114191E-02
     6.0240963855E-02     6.0222824450E-02     6.0204695966E-02     6.0186578393E-02
     6.0168471721E-02     6.0150375940E-02     6.0132291040E-02     6.0114217012E-02
     6.0096153846E-02     6.0078101532E-02     6.0060060060E-02     6.0042029420E-02
     6.0024009604E-02     6.0006000600E-02     5.9988002399E-02     5.9970014992E-02
     5.9952038369E-02     5.9934072520E-02     5.9916117435E-02     5.9898173105E-02
     5.9880239521E-02     5.9862316671E-02     5.9844404548E-02     5.9826503141E-02
     5.9808612440E-02     5.9790732436E-02     5.9772863120E-02     5.9755004481E-02
     5.9737156511E-02     5.9719319200E-02     5.9701492537E-02     5.9683676514E-02
     5.9665871121E-02     5.9648076349E-02     5.9630292188E-02     5.9612518629E-02
     5.9594755661E-02     5.9577003276E-02     5.9559261465E-02     5.9541530217E-02
     5.9523809524E-02     5.9506099375E-02     5.9488399762E-02     5.9470710675E-02
     5.9453032104E-02     5.9435364041E-02     5.9417706476E-02     5.9400059400E-02
     5.9382422803E-02     5.9364796675E-02     5.9347181009E-02     5.9329575793E-02
     5.9311981020E-02     5.9294396679E-02     5.9276822762E-02     5.9259259259E-02
     5.9241706161E-02     5.9224163458E-02     5.9206631142E-02     5.9189109204E-02
     5.9171597633E-02     5.9154096421E-02     5.9136605559E-02     5.9119125037E-02
     5.9101654846E-02     5.9084194978E-02     5.9066745422E-02     5.9049306170E-02
     5.9031877213E-02     5.9014458542E-02     5.8997050147E-02     5.8979652020E-02
     5.8962264151E-02     5.8944886531E-02     5.8927519151E-02     5.8910162003E-02
     5.8892815076E-02     5.8875478363E-02     5.8858151854E-02     5.8840835540E-02
     5.8823529412E-02     5.8806233461E-02     5.8788947678E-02     5.8771672054E-02
     5.8754406580E-02     5.8737151248E-02     5.8719906048E-02     5.8702670971E-02
     5.8685446009E-02     5.8668231153E-02     5.8651026393E-02     5.8633831721E-02
     5.8616647128E-02     5.8599472605E-02     5.8582308143E-02     5.8565153733E-02
     5.8548009367E-02     5.8530875036E-02     5.8513750731E-02     5.8496636443E-02
     5.8479532164E-02     5.8462437883E-02     5.8445353594E-02     5.8428279287E-02
     5.8411214953E-02     5.8394160584E-02     5.8377116170E-02     5.8360081704E-02
     5.8343057176E-02     5.8326042578E-02     5.8309037901E-02     5.8292043136E-02
     5.8275058275E-02     5.8258083309E-02     5.8241118229E-02     5.8224163027E-02
     5.8207217695E-02     5.8190282223E-02     5.8173356602E-02     5.8156440826E-02
     5.8139534883E-02     5.8122638768E-02     5.8105752469E-02     5.8088875980E-02
     5.8072009291E-02     5.8055152395E-02     5.8038305281E-02     5.8021467943E-02
     5.8004640371E-02     5.7987822557E-02     5.7971014493E-02     5.7954216169E-02
     5.7937427578E-02     5.7920648711E-02     5.7903879560E-02     5.7887120116E-02
     5.7870370370E-02     5.7853630315E-02     5.7836899942E-02     5.7820179242E-02
     5.7803468208E-02     5.7786766830E-02     5.7770075101E-02     5.7753393012E-02
     5.7736720554E-02     5.7720057720E-02     5.7703404501E-02     5.7686760888E-02
     5.7670126874E-02     5.7653502450E-02     5.7636887608E-02     5.7620282339E-02
     5.7603686636E-02     5.7587100489E-02     5.7570523892E-02     5.7553956834E-02
     5.7537399309E-02     5.7520851308E-02     5.7504312823E-02     5.7487783846E-02
     5.7471264368E-02     5.7454754381E-02     5.7438253877E-02     5.7421762848E-02
     5.7405281286E-02     5.7388809182E-02     5.7372346529E-02     5.7355893318E-02
     5.7339449541E-02     5.7323015190E-02     5.7306590258E-02     5.7290174735E-02
     5.7273768614E-02     5.7257371886E-02     5.7240984545E-02     5.7224606581E-02
     5.7208237986E-02     5.7191878753E-02     5.7175528873E-02     5.7159188339E-02
     5.7142857143E-02     5.7126535275E-02     5.7110222730E-02     5.7093919497E-02
     5.7077625571E-02     5.7061340941E-02     5.7045065602E-02     5.7028799544E-02
     5.7012542759E-02     5.6996295241E-02     5.6980056980E-02     5.6963827969E-02
     5.6947608200E-02     5.6931397666E-02     5.6915196357E-02     5.6899004267E-02
     5.6882821388E-02     5.6866647711E-02     5.6850483229E-02     5.6834327934E-02
     5.6818181818E-02     5.6802044873E-02     5.6785917092E-02     5.6769798467E-02
     5.6753688990E-02     5.6737588652E-02     5.6721497447E-02     5.6705415367E-02
     5.6689342403E-02     5.6673278549E-02     5.6657223796E-02     5.6641178136E-02
     5.6625141563E-02     5.6609114067E-02     5.6593095642E-02     5.6577086280E-02
     5.6561085973E-02     5.6545094713E-02     5.6529112493E-02     5.6513139305E-02
     5.6497175141E-02     5.6481219994E-02     5.6465273856E-02     5.6449336720E-02
     5.6433408578E-02     5.6417489421E-02     5.6401579244E-02     5.6385678038E-02
     5.6369785795E-02     5.6353902508E-02     5.6338028169E-02     5.6322162771E-02
     5.6306306306E-02     5.6290458767E-02     5.6274620146E-02     5.6258790436E-02
     5.6242969629E-02     5.6227157717E-02     5.6211354693E-02     5.6195560550E-02
     5.6179775281E-02     5.6163998876E-02     5.6148231330E-02     5.6132472635E-02
     5.6116722783E-02     5.6100981767E-02     5.6085249579E-02     5.6069526212E-02
     5.6053811659E-02     5.6038105912E-02     5.6022408963E-02     5.6006720806E-02
     5.5991041433E-02     5.5975370837E-02     5.5959709009E-02     5.5944055944E-02
     5.5928411633E-02     5.5912776069E-02     5.5897149245E-02     5.5881531154E-02
     5.5865921787E-02     5.5850321139E-02     5.5834729201E-02     5.5819145967E-02
     5.5803571428E-02     5.5788005579E-02     5.5772448410E-02     5.5756899916E-02
     5.5741360089E-02     5.5725828921E-02     5.5710306406E-02     5.5694792537E-02
     5.5679287305E-02     5.5663790704E-02     5.5648302727E-02     5.5632823366E-02
     5.5617352614E-02     5.5601890464E-02     5.5586436909E-02     5.5570991942E-02
     5.5555555555E-02     5.5540127742E-02     5.5524708495E-02     5.5509297807E-02
     5.5493895671E-02     5.5478502080E-02     5.5463117027E-02     5.5447740504E-02
     5.5432372505E-02     5.5417013023E-02     5.5401662050E-02     5.5386319579E-02
     5.5370985603E-02     5.5355660116E-02     5.5340343110E-02     5.5325034578E-02
     5.5309734513E-02     5.5294442908E-02     5.5279159757E-02     5.5263885051E-02
     5.5248618784E-02     5.5233360950E-02     5.5218111540E-02     5.5202870549E-02
     5.5187637969E-02     5.5172413793E-02     5.5157198014E-02     5.5141990626E-02
     5.5126791621E-02     5.5111600992E-02     5.5096418733E-02     5.5081244836E-02
     5.5066079295E-02     5.5050922103E-02     5.5035773252E-02     5.5020632737E-02
     5.5005500550E-02     5.4990376684E-02     5.4975261132E-02     5.4960153888E-02
     5.4945054945E-02     5.4929964295E-02     5.4914881933E-02     5.4899807850E-02
     5.4884742041E-02     5.4869684499E-02     5.4854635216E-02     5.4839594187E-02
     5.4824561403E-02     5.4809536859E-02     5.4794520548E-02     5.4779512462E-02
     5.4764512596E-02     5.4749520941E-02     5.4734537493E-02     5.4719562243E-02
     5.4704595186E-02     5.4689636314E-02     5.4674685620E-02     5.4659743099E-02
     5.4644808743E-02     5.4629882546E-02     5.4614964500E-02     5.4600054600E-02
     5.4585152838E-02     5.4570259209E-02     5.4555373704E-02     5.4540496318E-02
     5.4525627044E-02     5.4510765876E-02     5.4495912806E-02     5.4481067829E-02
     5.4466230937E-02     5.4451402123E-02     5.4436581382E-02     5.4421768707E-02
     5.4406964091E-02     5.4392167528E-02     5.4377379010E-02     5.4362598532E-02
     5.4347826087E-02     5.4333061668E-02     5.4318305269E-02     5.4303556883E-02
     5.4288816504E-02     5.4274084125E-02     5.4259359739E-02     5.4244643341E-02
     5.4229934924E-02     5.4215234481E-02     5.4200542005E-02     5.4185857491E-02
     5.4171180932E-02     5.4156512320E-02     5.4141851651E-02     5.4127198917E-02
     5.4112554112E-02     5.4097917230E-02     5.4083288264E-02     5.4068667207E-02
     5.4054054054E-02     5.4039448797E-02     5.4024851431E-02     5.4010261950E-02
     5.3995680345E-02     5.3981106612E-02     5.3966540745E-02     5.3951982735E-02
     5.3937432578E-02     5.3922890267E-02     5.3908355795E-02     5.3893829156E-02
     5.3879310345E-02     5.3864799353E-02     5.3850296176E-02     5.3835800807E-02
     5.3821313240E-02     5.3806833468E-02     5.3792361484E-02     5.3777897284E-02
     5.3763440860E-02     5.3748992206E-02     5.3734551316E-02     5.3720118184E-02
     5.3705692803E-02     5.3691275168E-02     5.3676865271E-02     5.3662463107E-02
     5.3648068669E-02     5.3633681952E-02     5.3619302949E-02     5.3604931653E-02
     5.3590568060E-02     5.3576212162E-02     5.3561863953E-02     5.3547523427E-02
     5.3533190578E-02     5.3518865400E-02     5.3504547886E-02     5.3490238031E-02
     5.3475935829E-02     5.3461641272E-02     5.3447354356E-02     5.3433075073E-02
     5.3418803419E-02     5.3404539386E-02     5.3390282968E-02     5.3376034160E-02
     5.3361792956E-02     5.3347559349E-02     5.3333333333E-02     5.3319114902E-02
     5.3304904051E-02     5.3290700773E-02     5.3276505061E-02     5.3262316911E-02
     5.3248136315E-02     5.3233963268E-02     5.3219797765E-02     5.3205639798E-02
     5.3191489361E-02     5.3177346450E-02     5.3163211058E-02     5.3149083178E-02
     5.3134962805E-02     5.3120849933E-02     5.3106744556E-02     5.3092646668E-02
     5.3078556263E-02     5.3064473335E-02     5.3050397878E-02     5.3036329886E-02
     5.3022269353E-02     5.3008216273E-02     5.2994170641E-02     5.2980132450E-02
     5.2966101695E-02     5.2952078369E-02     5.2938062467E-02     5.2924053982E-02
     5.2910052910E-02     5.2896059243E-02     5.2882072977E-02     5.2868094105E-02
     5.2854122621E-02     5.2840158520E-02     5.2826201796E-02     5.2812252442E-02
     5.2798310454E-02     5.2784375825E-02     5.2770448549E-02     5.2756528620E-02
     5.2742616034E-02     5.2728710783E-02     5.2714812862E-02     5.2700922266E-02
     5.2687038988E-02     5.2673163023E-02     5.2659294365E-02     5.2645433008E-02
     5.2631578947E-02     5.2617732176E-02     5.2603892688E-02     5.2590060478E-02
     5.2576235541E-02     5.2562417871E-02     5.2548607462E-02     5.2534804308E-02
     5.2521008403E-02     5.2507219743E-02     5.2493438320E-02     5.2479664130E-02
     5.2465897167E-02     5.2452137424E-02     5.2438384898E-02     5.2424639580E-02
     5.2410901467E-02     5.2397170553E-02     5.2383446831E-02     5.2369730296E-02
     5.2356020942E-02     5.2342318765E-02     5.2328623757E-02     5.2314935914E-02
     5.2301255230E-02     5.2287581699E-02     5.2273915316E-02     5.2260256075E-02
     5.2246603971E-02     5.2232958997E-02     5.2219321149E-02     5.2205690420E-02
     5.2192066806E-02     5.2178450300E-02     5.2164840897E-02     5.2151238592E-02
     5.2137643378E-02     5.2124055251E-02     5.2110474205E-02     5.2096900234E-02
     5.2083333333E-02     5.2069773496E-02     5.2056220718E-02     5.2042674993E-02
     5.2029136316E-02     5.2015604681E-02     5.2002080083E-02     5.1988562516E-02
     5.1975051975E-02     5.1961548454E-02     5.1948051948E-02     5.1934562451E-02
     5.1921079958E-02     5.1907604464E-02     5.1894135962E-02     5.1880674449E-02
     5.1867219917E-02     5.1853772362E-02     5.1840331778E-02     5.1826898160E-02
     5.1813471502E-02     5.1800051800E-02     5.1786639047E-02     5.1773233238E-02
     5.1759834368E-02     5.1746442432E-02     5.1733057423E-02     5.1719679338E-02
     5.1706308169E-02     5.1692943913E-02     5.1679586563E-02     5.1666236114E-02
     5.1652892562E-02     5.1639555900E-02     5.1626226123E-02     5.1612903226E-02
     5.1599587203E-02     5.1586278050E-02     5.1572975760E-02     5.1559680330E-02
     5.1546391752E-02     5.1533110023E-02     5.1519835136E-02     5.1506567087E-02
     5.1493305870E-02     5.1480051480E-02     5.1466803911E-02     5.1453563159E-02
     5.1440329218E-02     5.1427102083E-02     5.1413881748E-02     5.1400668208E-02
     5.1387461459E-02     5.1374261495E-02     5.1361068310E-02     5.1347881900E-02
     5.1334702259E-02     5.1321529381E-02     5.1308363263E-02     5.1295203898E-02
     5.1282051282E-02     5.1268905409E-02     5.1255766274E-02     5.1242633871E-02
     5.1229508197E-02     5.1216389244E-02     5.1203277010E-02     5.1190171487E-02
     5.1177072671E-02     5.1163980557E-02     5.1150895140E-02     5.1137816415E-02
     5.1124744376E-02     5.1111679018E-02     5.1098620337E-02     5.1085568327E-02
     5.1072522982E-02     5.1059484299E-02     5.1046452271E-02     5.1033426894E-02
     5.1020408163E-02     5.1007396072E-02     5.0994390617E-02     5.0981391792E-02
     5.0968399592E-02     5.0955414013E-02     5.0942435048E-02     5.0929462694E-02
     5.0916496945E-02     5.0903537796E-02     5.0890585242E-02     5.0877639277E-02
     5.0864699898E-02     5.0851767099E-02     5.0838840874E-02     5.0825921220E-02
     5.0813008130E-02     5.0800101600E-02     5.0787201625E-02     5.0774308200E-02
     5.0761421320E-02     5.0748540979E-02     5.0735667174E-02     5.0722799898E-02
     5.0709939148E-02     5.0697084917E-02     5.0684237202E-02     5.0671395997E-02
     5.0658561297E-02     5.0645733097E-02     5.0632911392E-02     5.0620096178E-02
     5.0607287449E-02     5.0594485201E-02     5.0581689428E-02     5.0568900126E-02
     5.0556117290E-02     5.0543340915E-02     5.0530570995E-02     5.0517807527E-02
     5.0505050505E-02     5.0492299924E-02     5.0479555780E-02     5.0466818067E-02
     5.0454086781E-02     5.0441361917E-02     5.0428643469E-02     5.0415931434E-02
     5.0403225806E-02     5.0390526581E-02     5.0377833753E-02     5.0365147318E-02
     5.0352467271E-02     5.0339793607E-02     5.0327126321E-02     5.0314465409E-02
     5.0301810865E-02     5.0289162685E-02     5.0276520865E-02     5.0263885398E-02
     5.0251256281E-02     5.0238633509E-02     5.0226017077E-02     5.0213406979E-02
     5.0200803213E-02     5.0188205771E-02     5.0175614651E-02     5.0163029847E-02
     5.0150451354E-02     5.0137879168E-02     5.0125313283E-02     5.0112753696E-02
     5.0100200401E-02     5.0087653393E-02     5.0075112669E-02     5.0062578223E-02
     5.0050050050E-02     5.0037528146E-02     5.0025012506E-02     5.0012503126E-02
     5.0000000000E-02     4.9987503124E-02     4.9975012494E-02     4.9962528104E-02
     4.9950049950E-02     4.9937578027E-02     4.9925112331E-02     4.9912652857E-02
     4.9900199601E-02     4.9887752557E-02     4.9875311720E-02     4.9862877088E-02
     4.9850448654E-02     4.9838026414E-02     4.9825610364E-02     4.9813200498E-02
     4.9800796813E-02     4.9788399303E-02     4.9776007964E-02     4.9763622792E-02
     4.9751243781E-02     4.9738870927E-02     4.9726504227E-02     4.9714143674E-02
     4.9701789264E-02     4.9689440994E-02     4.9677098857E-02     4.9664762851E-02
     4.9652432969E-02     4.9640109208E-02     4.9627791563E-02     4.9615480030E-02
     4.9603174603E-02     4.9590875279E-02     4.9578582052E-02     4.9566294919E-02
     4.9554013875E-02     4.9541738915E-02     4.9529470034E-02     4.9517207229E-02
     4.9504950495E-02     4.9492699827E-02     4.9480455220E-02     4.9468216671E-02
     4.9455984174E-02     4.9443757725E-02     4.9431537321E-02     4.9419322955E-02
     4.9407114624E-02     4.9394912324E-02     4.9382716049E-02     4.9370525796E-02
     4.9358341560E-02     4.9346163336E-02     4.9333991120E-02     4.9321824907E-02
     4.9309664694E-02     4.9297510476E-02     4.9285362247E-02     4.9273220005E-02
     4.9261083744E-02     4.9248953460E-02     4.9236829148E-02     4.9224710805E-02
     4.9212598425E-02     4.9200492005E-02     4.9188391539E-02     4.9176297025E-02
     4.9164208456E-02     4.9152125829E-02     4.9140049140E-02     4.9127978383E-02
     4.9115913556E-02     4.9103854652E-02     4.9091801669E-02     4.9079754601E-02
     4.9067713444E-02     4.9055678195E-02     4.9043648847E-02     4.9031625398E-02
     4.9019607843E-02     4.9007596177E-02     4.8995590397E-02     4.8983590497E-02
     4.8971596474E-02     4.8959608323E-02     4.8947626040E-02     4.8935649621E-02
     4.8923679060E-02     4.8911714355E-02     4.8899755501E-02     4.8887802493E-02
     4.8875855327E-02     4.8863913999E-02     4.8851978505E-02     4.8840048840E-02
     4.8828125000E-02     4.8816206981E-02     4.8804294778E-02     4.8792388387E-02
     4.8780487805E-02     4.8768593026E-02     4.8756704047E-02     4.8744820863E-02
     4.8732943470E-02     4.8721071863E-02     4.8709206040E-02     4.8697345994E-02
     4.8685491723E-02     4.8673643222E-02     4.8661800486E-02     4.8649963512E-02
     4.8638132296E-02     4.8626306832E-02     4.8614487117E-02     4.8602673147E-02
     4.8590864917E-02     4.8579062424E-02     4.8567265663E-02     4.8555474630E-02
     4.8543689320E-02     4.8531909730E-02     4.8520135856E-02     4.8508367693E-02
     4.8496605237E-02     4.8484848485E-02     4.8473097431E-02     4.8461352072E-02
     4.8449612403E-02     4.8437878421E-02     4.8426150121E-02     4.8414427499E-02
     4.8402710552E-02     4.8390999274E-02     4.8379293662E-02     4.8367593712E-02
     4.8355899420E-02     4.8344210781E-02     4.8332527791E-02     4.8320850447E-02
     4.8309178744E-02     4.8297512678E-02     4.8285852245E-02     4.8274197441E-02
     4.8262548262E-02     4.8250904704E-02     4.8239266763E-02     4.8227634434E-02
     4.8216007714E-02     4.8204386599E-02     4.8192771084E-02     4.8181161166E-02
     4.8169556840E-02     4.8157958102E-02     4.8146364949E-02     4.8134777376E-02
     4.8123195380E-02     4.8111618956E-02     4.8100048100E-02     4.8088482808E-02
     4.8076923077E-02     4.8065368902E-02     4.8053820279E-02     4.8042277204E-02
     4.8030739673E-02     4.8019207683E-02     4.8007681229E-02     4.7996160307E-02
     4.7984644913E-02     4.7973135044E-02     4.7961630695E-02     4.7950131863E-02
     4.7938638542E-02     4.7927150731E-02     4.7915668423E-02     4.7904191617E-02
     4.7892720306E-02     4.7881254489E-02     4.7869794160E-02     4.7858339315E-02
     4.7846889952E-02     4.7835446065E-02     4.7824007652E-02     4.7812574707E-02
     4.7801147227E-02     4.7789725209E-02     4.7778308648E-02     4.7766897540E-02
     4.7755491881E-02     4.7744091668E-02     4.7732696897E-02     4.7721307564E-02
     4.7709923664E-02     4.7698545194E-02     4.7687172151E-02     4.7675804529E-02
     4.7664442326E-02     4.7653085537E-02     4.7641734159E-02     4.7630388187E-02
     4.7619047619E-02     4.7607712449E-02     4.7596382675E-02     4.7585058292E-02
     4.7573739296E-02     4.7562425684E-02     4.7551117451E-02     4.7539814595E-02
     4.7528517110E-02     4.7517224994E-02     4.7505938242E-02     4.7494656851E-02
     4.7483380817E-02     4.7472110135E-02     4.7460844803E-02     4.7449584816E-02
     4.7438330171E-02     4.7427080863E-02     4.7415836889E-02     4.7404598246E-02
     4.7393364929E-02     4.7382136934E-02     4.7370914258E-02     4.7359696898E-02
     4.7348484848E-02     4.7337278106E-02     4.7326076668E-02     4.7314880530E-02
     4.7303689688E-02     4.7292504138E-02     4.7281323877E-02     4.7270148901E-02
     4.7258979206E-02     4.7247814788E-02     4.7236655645E-02     4.7225501771E-02
     4.7214353163E-02     4.7203209818E-02     4.7192071732E-02     4.7180938900E-02
     4.7169811321E-02     4.7158688988E-02     4.7147571900E-02     4.7136460052E-02
     4.7125353440E-02     4.7114252061E-02     4.7103155911E-02     4.7092064987E-02
     4.7080979284E-02     4.7069898800E-02     4.7058823529E-02     4.7047753470E-02
     4.7036688617E-02     4.7025628968E-02     4.7014574518E-02     4.7003525264E-02
     4.6992481203E-02     4.6981442330E-02     4.6970408642E-02     4.6959380136E-02
     4.6948356807E-02     4.6937338653E-02     4.6926325669E-02     4.6915317851E-02
     4.6904315197E-02     4.6893317702E-02     4.6882325363E-02     4.6871338177E-02
     4.6860356139E-02     4.6849379246E-02     4.6838407494E-02     4.6827440880E-02
     4.6816479401E-02     4.6805523052E-02     4.6794571829E-02     4.6783625731E-02
     4.6772684752E-02     4.6761748889E-02     4.6750818139E-02     4.6739892498E-02
     4.6728971962E-02     4.6718056529E-02     4.6707146193E-02     4.6696240952E-02
     4.6685340803E-02     4.6674445741E-02     4.6663555763E-02     4.6652670865E-02
     4.6641791045E-02     4.6630916297E-02     4.6620046620E-02     4.6609182009E-02
     4.6598322460E-02     4.6587467971E-02     4.6576618537E-02     4.6565774156E-02
     4.6554934823E-02     4.6544100535E-02     4.6533271289E-02     4.6522447081E-02
     4.6511627907E-02     4.6500813764E-02     4.6490004649E-02     4.6479200558E-02
     4.6468401487E-02     4.6457607433E-02     4.6446818393E-02     4.6436034362E-02
     4.6425255339E-02     4.6414481318E-02     4.6403712297E-02     4.6392948272E-02
     4.6382189239E-02     4.6371435196E-02     4.6360686138E-02     4.6349942062E-02
     4.6339202966E-02     4.6328468844E-02     4.6317739694E-02     4.6307015513E-02
     4.6296296296E-02     4.6285582041E-02     4.6274872744E-02     4.6264168401E-02
     4.6253469010E-02     4.6242774566E-02     4.6232085067E-02     4.6221400508E-02
     4.6210720887E-02     4.6200046200E-02     4.6189376443E-02     4.6178711614E-02
     4.6168051708E-02     4.6157396723E-02     4.6146746654E-02     4.6136101499E-02
     4.6125461254E-02     4.6114825916E-02     4.6104195482E-02     4.6093569947E-02
     4.6082949309E-02     4.6072333564E-02     4.6061722708E-02     4.6051116739E-02
     4.6040515654E-02     4.6029919447E-02     4.6019328118E-02     4.6008741661E-02
     4.5998160073E-02     4.5987583352E-02     4.5977011494E-02     4.5966444495E-02
     4.5955882353E-02     4.5945325063E-02     4.5934772623E-02     4.5924225029E-02
     4.5913682277E-02     4.5903144365E-02     4.5892611289E-02     4.5882083046E-02
     4.5871559633E-02     4.5861041045E-02     4.5850527281E-02     4.5840018336E-02
     4.5829514207E-02     4.5819014891E-02     4.5808520385E-02     4.5798030684E-02
     4.5787545787E-02     4.5777065690E-02     4.5766590389E-02     4.5756119881E-02
     4.5745654163E-02     4.5735193231E-02     4.5724737083E-02     4.5714285714E-02
     4.5703839122E-02     4.5693397304E-02     4.5682960256E-02     4.5672527974E-02
     4.5662100456E-02     4.5651677699E-02     4.5641259699E-02     4.5630846452E-02
     4.5620437956E-02     4.5610034207E-02     4.5599635203E-02     4.5589240939E-02
     4.5578851413E-02     4.5568466621E-02     4.5558086560E-02     4.5547711227E-02
     4.5537340619E-02     4.5526974732E-02     4.5516613564E-02     4.5506257110E-02
     4.5495905368E-02     4.5485558335E-02     4.5475216007E-02     4.5464878381E-02
     4.5454545454E-02     4.5444217223E-02     4.5433893685E-02     4.5423574835E-02
     4.5413260672E-02     4.5402951192E-02     4.5392646391E-02     4.5382346267E-02
     4.5372050817E-02     4.5361760036E-02     4.5351473923E-02     4.5341192473E-02
     4.5330915684E-02     4.5320643553E-02     4.5310376076E-02     4.5300113250E-02
     4.5289855072E-02     4.5279601539E-02     4.5269352648E-02     4.5259108395E-02
     4.5248868778E-02     4.5238633793E-02     4.5228403437E-02     4.5218177707E-02
     4.5207956600E-02     4.5197740113E-02     4.5187528242E-02     4.5177320985E-02
     4.5167118338E-02     4.5156920298E-02     4.5146726862E-02     4.5136538027E-02
     4.5126353790E-02     4.5116174148E-02     4.5105999098E-02     4.5095828636E-02
     4.5085662759E-02     4.5075501465E-02     4.5065344750E-02     4.5055192611E-02
     4.5045045045E-02     4.5034902049E-02     4.5024763620E-02     4.5014629754E-02
     4.5004500450E-02     4.4994375703E-02     4.4984255510E-02     4.4974139869E-02
     4.4964028777E-02     4.4953922230E-02     4.4943820225E-02     4.4933722759E-02
     4.4923629829E-02     4.4913541433E-02     4.4903457566E-02     4.4893378227E-02
     4.4883303411E-02     4.4873233116E-02     4.4863167339E-02     4.4853106077E-02
     4.4843049327E-02     4.4832997086E-02     4.4822949350E-02     4.4812906117E-02
     4.4802867383E-02     4.4792833147E-02     4.4782803403E-02     4.4772778151E-02
     4.4762757386E-02     4.4752741105E-02     4.4742729306E-02     4.4732721986E-02
     4.4722719141E-02     4.4712720769E-02     4.4702726866E-02     4.4692737430E-02
     4.4682752457E-02     4.4672771945E-02     4.4662795891E-02     4.4652824291E-02
     4.4642857143E-02     4.4632894443E-02     4.4622936189E-02     4.4612982378E-02
     4.4603033006E-02     4.4593088071E-02     4.4583147570E-02     4.4573211500E-02
     4.4563279857E-02     4.4553352640E-02     4.4543429844E-02     4.4533511467E-02
     4.4523597507E-02     4.4513687959E-02     4.4503782821E-02     4.4493882091E-02
     4.4483985765E-02     4.4474093840E-02     4.4464206314E-02     4.4454323183E-02
     4.4444444444E-02     4.4434570095E-02     4.4424700133E-02     4.4414834555E-02
     4.4404973357E-02     4.4395116537E-02     4.4385264092E-02     4.4375416019E-02
     4.4365572316E-02     4.4355732978E-02     4.4345898004E-02     4.4336067391E-02
     4.4326241135E-02     4.4316419233E-02     4.4306601683E-02     4.4296788483E-02
     4.4286979628E-02     4.4277175116E-02     4.4267374944E-02     4.4257579110E-02
     4.4247787610E-02     4.4238000442E-02     4.4228217603E-02     4.4218439089E-02
     4.4208664898E-02     4.4198895027E-02     4.4189129474E-02     4.4179368235E-02
     4.4169611307E-02     4.4159858688E-02     4.4150110375E-02     4.4140366365E-02
     4.4130626655E-02     4.4120891242E-02     4.4111160123E-02     4.4101433296E-02
     4.4091710758E-02     4.4081992506E-02     4.4072278537E-02     4.4062568848E-02
     4.4052863436E-02     4.4043162299E-02     4.4033465434E-02     4.4023772837E-02
     4.4014084507E-02     4.4004400440E-02     4.3994720633E-02     4.3985045084E-02
     4.3975373791E-02     4.3965706749E-02     4.3956043956E-02     4.3946385410E-02
     4.3936731107E-02     4.3927081045E-02     4.3917435222E-02     4.3907793633E-02
     4.3898156277E-02     4.3888523151E-02     4.3878894252E-02     4.3869269576E-02
     4.3859649123E-02     4.3850032887E-02     4.3840420868E-02     4.3830813061E-02
     4.3821209465E-02     4.3811610076E-02     4.3802014893E-02     4.3792423910E-02
     4.3782837128E-02     4.3773254541E-02     4.3763676149E-02     4.3754101947E-02
     4.3744531933E-02     4.3734966105E-02     4.3725404460E-02     4.3715846994E-02
     4.3706293706E-02     4.3696744592E-02     4.3687199650E-02     4.3677658877E-02
     4.3668122271E-02     4.3658589827E-02     4.3649061545E-02     4.3639537421E-02
     4.3630017452E-02     4.3620501636E-02     4.3610989969E-02     4.3601482450E-02
     4.3591979076E-02     4.3582479843E-02     4.3572984749E-02     4.3563493792E-02
     4.3554006968E-02     4.3544524276E-02     4.3535045712E-02     4.3525571273E-02
     4.3516100957E-02     4.3506634762E-02     4.3497172684E-02     4.3487714720E-02
     4.3478260869E-02     4.3468811128E-02     4.3459365493E-02     4.3449923962E-02
     4.3440486533E-02     4.3431053203E-02     4.3421623969E-02     4.3412198828E-02
     4.3402777778E-02     4.3393360816E-02     4.3383947939E-02     4.3374539145E-02
     4.3365134432E-02     4.3355733796E-02     4.3346337234E-02     4.3336944745E-02
     4.3327556326E-02     4.3318171973E-02     4.3308791685E-02     4.3299415458E-02
     4.3290043290E-02     4.3280675178E-02     4.3271311121E-02     4.3261951114E-02
     4.3252595156E-02     4.3243243243E-02     4.3233895374E-02     4.3224551545E-02
     4.3215211754E-02     4.3205875999E-02     4.3196544276E-02     4.3187216584E-02
     4.3177892919E-02     4.3168573278E-02     4.3159257661E-02     4.3149946062E-02
     4.3140638481E-02     4.3131334915E-02     4.3122035360E-02     4.3112739814E-02
     4.3103448276E-02     4.3094160741E-02     4.3084877208E-02     4.3075597674E-02
     4.3066322136E-02     4.3057050592E-02     4.3047783039E-02     4.3038519475E-02
     4.3029259897E-02     4.3020004302E-02     4.3010752688E-02     4.3001505053E-02
     4.2992261393E-02     4.2983021706E-02     4.2973785990E-02     4.2964554243E-02
     4.2955326460E-02     4.2946102641E-02     4.2936882782E-02     4.2927666881E-02
     4.2918454935E-02     4.2909246943E-02     4.2900042900E-02     4.2890842805E-02
     4.2881646655E-02     4.2872454448E-02     4.2863266181E-02     4.2854081851E-02
     4.2844901457E-02     4.2835724994E-02     4.2826552462E-02     4.2817383858E-02
     4.2808219178E-02     4.2799058421E-02     4.2789901583E-02     4.2780748663E-02
     4.2771599658E-02     4.2762454565E-02     4.2753313382E-02     4.2744176106E-02
     4.2735042735E-02     4.2725913266E-02     4.2716787697E-02     4.2707666026E-02
     4.2698548249E-02     4.2689434365E-02     4.2680324370E-02     4.2671218263E-02
     4.2662116041E-02     4.2653017701E-02     4.2643923241E-02     4.2634832658E-02
     4.2625745950E-02     4.2616663115E-02     4.2607584150E-02     4.2598509052E-02
     4.2589437819E-02     4.2580370449E-02     4.2571306939E-02     4.2562247286E-02
     4.2553191489E-02     4.2544139545E-02     4.2535091450E-02     4.2526047204E-02
     4.2517006803E-02     4.2507970244E-02     4.2498937526E-02     4.2489908647E-02
     4.2480883602E-02     4.2471862391E-02     4.2462845010E-02     4.2453831458E-02
     4.2444821732E-02     4.2435815828E-02     4.2426813746E-02     4.2417815482E-02
     4.2408821035E-02     4.2399830401E-02     4.2390843578E-02     4.2381860564E-02
     4.2372881356E-02     4.2363905952E-02     4.2354934350E-02     4.2345966547E-02
     4.2337002540E-02     4.2328042328E-02     4.2319085908E-02     4.2310133277E-02
     4.2301184433E-02     4.2292239374E-02     4.2283298097E-02     4.2274360600E-02
     4.2265426881E-02     4.2256496936E-02     4.2247570765E-02     4.2238648363E-02
     4.2229729730E-02     4.2220814862E-02     4.2211903757E-02     4.2202996413E-02
     4.2194092827E-02     4.2185192997E-02     4.2176296921E-02     4.2167404596E-02
     4.2158516020E-02     4.2149631191E-02     4.2140750105E-02     4.2131872762E-02
     4.2122999157E-02     4.2114129290E-02     4.2105263158E-02     4.2096400758E-02
     4.2087542087E-02     4.2078687145E-02     4.2069835927E-02     4.2060988433E-02
     4.2052144659E-02     4.2043304604E-02     4.2034468264E-02     4.2025635638E-02
     4.2016806723E-02     4.2007981516E-02     4.1999160017E-02     4.1990342221E-02
     4.1981528127E-02     4.1972717733E-02     4.1963911036E-02     4.1955108034E-02
     4.1946308725E-02     4.1937513105E-02     4.1928721174E-02     4.1919932928E-02
     4.1911148365E-02     4.1902367484E-02     4.1893590281E-02     4.1884816754E-02
     4.1876046901E-02     4.1867280720E-02     4.1858518208E-02     4.1849759364E-02
     4.1841004184E-02     4.1832252667E-02     4.1823504810E-02     4.1814760610E-02
     4.1806020067E-02     4.1797283176E-02     4.1788549937E-02     4.1779820347E-02
     4.1771094403E-02     4.1762372103E-02     4.1753653445E-02     4.1744938426E-02
     4.1736227045E-02     4.1727519299E-02     4.1718815185E-02     4.1710114703E-02
     4.1701417848E-02     4.1692724619E-02     4.1684035014E-02     4.1675349031E-02
     4.1666666667E-02     4.1657987919E-02     4.1649312786E-02     4.1640641266E-02
     4.1631973355E-02     4.1623309053E-02     4.1614648356E-02     4.1605991263E-02
     4.1597337770E-02     4.1588687877E-02     4.1580041580E-02     4.1571398877E-02
     4.1562759767E-02     4.1554124247E-02     4.1545492314E-02     4.1536863967E-02
     4.1528239202E-02     4.1519618019E-02     4.1511000415E-02     4.1502386387E-02
     4.1493775933E-02     4.1485169052E-02     4.1476565740E-02     4.1467965996E-02
     4.1459369817E-02     4.1450777202E-02     4.1442188147E-02     4.1433602652E-02
     4.1425020712E-02     4.1416442327E-02     4.1407867495E-02     4.1399296212E-02
     4.1390728477E-02     4.1382164287E-02     4.1373603641E-02     4.1365046536E-02
     4.1356492969E-02     4.1347942940E-02     4.1339396445E-02     4.1330853482E-02
     4.1322314049E-02     4.1313778145E-02     4.1305245766E-02     4.1296716911E-02
     4.1288191577E-02     4.1279669762E-02     4.1271151465E-02     4.1262636682E-02
     4.1254125412E-02     4.1245617653E-02     4.1237113402E-02     4.1228612657E-02
     4.1220115416E-02     4.1211621677E-02     4.1203131438E-02     4.1194644696E-02
     4.1186161450E-02     4.1177681696E-02     4.1169205434E-02     4.1160732661E-02
     4.1152263374E-02     4.1143797572E-02     4.1135335253E-02     4.1126876414E-02
     4.1118421052E-02     4.1109969167E-02     4.1101520756E-02     4.1093075817E-02
     4.1084634347E-02     4.1076196344E-02     4.1067761807E-02     4.1059330733E-02
     4.1050903120E-02     4.1042478966E-02     4.1034058268E-02     4.1025641025E-02
     4.1017227235E-02     4.1008816895E-02     4.1000410004E-02     4.0992006559E-02
     4.0983606557E-02     4.0975209998E-02     4.0966816878E-02     4.0958427196E-02
     4.0950040950E-02     4.0941658137E-02     4.0933278755E-02     4.0924902803E-02
     4.0916530278E-02     4.0908161178E-02     4.0899795501E-02     4.0891433245E-02
     4.0883074407E-02     4.0874718986E-02     4.0866366980E-02     4.0858018386E-02
     4.0849673202E-02     4.0841331427E-02     4.0832993058E-02     4.0824658093E-02
     4.0816326530E-02     4.0807998368E-02     4.0799673602E-02     4.0791352233E-02
     4.0783034258E-02     4.0774719674E-02     4.0766408479E-02     4.0758100672E-02
     4.0749796251E-02     4.0741495213E-02     4.0733197556E-02     4.0724903278E-02
     4.0716612378E-02     4.0708324852E-02     4.0700040700E-02     4.0691759918E-02
     4.0683482506E-02     4.0675208460E-02     4.0666937779E-02     4.0658670461E-02
     4.0650406504E-02     4.0642145905E-02     4.0633888663E-02     4.0625634775E-02
     4.0617384240E-02     4.0609137056E-02     4.0600893219E-02     4.0592652730E-02
     4.0584415584E-02     4.0576181781E-02     4.0567951318E-02     4.0559724194E-02
     4.0551500405E-02     4.0543279951E-02     4.0535062829E-02     4.0526849037E-02
     4.0518638574E-02     4.0510431436E-02     4.0502227622E-02     4.0494027131E-02
     4.0485829959E-02     4.0477636106E-02     4.0469445568E-02     4.0461258345E-02
     4.0453074433E-02     4.0444893832E-02     4.0436716538E-02     4.0428542551E-02
     4.0420371867E-02     4.0412204486E-02     4.0404040404E-02     4.0395879620E-02
     4.0387722132E-02     4.0379567938E-02     4.0371417037E-02     4.0363269425E-02
     4.0355125101E-02     4.0346984063E-02     4.0338846309E-02     4.0330711837E-02
     4.0322580645E-02     4.0314452731E-02     4.0306328093E-02     4.0298206730E-02
     4.0290088638E-02     4.0281973817E-02     4.0273862263E-02     4.0265753976E-02
     4.0257648953E-02     4.0249547192E-02     4.0241448692E-02     4.0233353450E-02
     4.0225261464E-02     4.0217172733E-02     4.0209087254E-02     4.0201005025E-02
     4.0192926045E-02     4.0184850311E-02     4.0176777822E-02     4.0168708576E-02
     4.0160642570E-02     4.0152579803E-02     4.0144520273E-02     4.0136463977E-02
     4.0128410915E-02     4.0120361083E-02     4.0112314480E-02     4.0104271105E-02
     4.0096230954E-02     4.0088194027E-02     4.0080160320E-02     4.0072129834E-02
     4.0064102564E-02     4.0056078510E-02     4.0048057669E-02     4.0040040040E-02
     4.0032025620E-02     4.0024014408E-02     4.0016006402E-02     4.0008001600E-02
     4.0000000000E-02     3.9992001600E-02     3.9984006397E-02     3.9976014391E-02
     3.9968025580E-02     3.9960039960E-02     3.9952057531E-02     3.9944078290E-02
     3.9936102236E-02     3.9928129367E-02     3.9920159681E-02     3.9912193175E-02
     3.9904229848E-02     3.9896269699E-02     3.9888312724E-02     3.9880358923E-02
     3.9872408293E-02     3.9864460833E-02     3.9856516540E-02     3.9848575413E-02
     3.9840637450E-02     3.9832702649E-02     3.9824771008E-02     3.9816842524E-02
     3.9808917197E-02     3.9800995025E-02     3.9793076005E-02     3.9785160135E-02
     3.9777247414E-02     3.9769337841E-02     3.9761431412E-02     3.9753528126E-02
     3.9745627981E-02     3.9737730976E-02     3.9729837108E-02     3.9721946375E-02
     3.9714058777E-02     3.9706174310E-02     3.9698292973E-02     3.9690414765E-02
     3.9682539683E-02     3.9674667725E-02     3.9666798889E-02     3.9658933175E-02
     3.9651070579E-02     3.9643211100E-02     3.9635354736E-02     3.9627501486E-02
     3.9619651347E-02     3.9611804318E-02     3.9603960396E-02     3.9596119580E-02
     3.9588281869E-02     3.9580447259E-02     3.9572615750E-02     3.9564787339E-02
     3.9556962025E-02     3.9549139806E-02     3.9541320680E-02     3.9533504645E-02
     3.9525691700E-02     3.9517881842E-02     3.9510075069E-02     3.9502271381E-02
     3.9494470774E-02     3.9486673248E-02     3.9478878800E-02     3.9471087428E-02
     3.9463299132E-02     3.9455513908E-02     3.9447731755E-02     3.9439952672E-02
     3.9432176656E-02     3.9424403706E-02     3.9416633819E-02     3.9408866995E-02
     3.9401103231E-02     3.9393342525E-02     3.9385584876E-02     3.9377830282E-02
     3.9370078740E-02     3.9362330250E-02     3.9354584809E-02     3.9346842416E-02
     3.9339103068E-02     3.9331366765E-02     3.9323633504E-02     3.9315903283E-02
     3.9308176101E-02     3.9300451955E-02     3.9292730845E-02     3.9285012768E-02
     3.9277297722E-02     3.9269585706E-02     3.9261876718E-02     3.9254170756E-02
     3.9246467818E-02     3.9238767903E-02     3.9231071008E-02     3.9223377133E-02
     3.9215686275E-02     3.9207998432E-02     3.9200313603E-02     3.9192631785E-02
     3.9184952978E-02     3.9177277179E-02     3.9169604387E-02     3.9161934600E-02
     3.9154267815E-02     3.9146604032E-02     3.9138943249E-02     3.9131285463E-02
     3.9123630673E-02     3.9115978877E-02     3.9108330074E-02     3.9100684262E-02
     3.9093041439E-02     3.9085401603E-02     3.9077764752E-02     3.9070130885E-02
     3.9062500000E-02     3.9054872095E-02     3.9047247169E-02     3.9039625220E-02
     3.9032006245E-02     3.9024390244E-02     3.9016777214E-02     3.9009167154E-02
     3.9001560062E-02     3.8993955937E-02     3.8986354776E-02     3.8978756578E-02
     3.8971161341E-02     3.8963569063E-02     3.8955979743E-02     3.8948393379E-02
     3.8940809969E-02     3.8933229511E-02     3.8925652005E-02     3.8918077447E-02
     3.8910505837E-02     3.8902937172E-02     3.8895371451E-02     3.8887808672E-02
     3.8880248834E-02     3.8872691934E-02     3.8865137971E-02     3.8857586944E-02
     3.8850038850E-02     3.8842493688E-02     3.8834951456E-02     3.8827412153E-02
     3.8819875776E-02     3.8812342325E-02     3.8804811797E-02     3.8797284190E-02
     3.8789759503E-02     3.8782237735E-02     3.8774718883E-02     3.8767202946E-02
     3.8759689922E-02     3.8752179810E-02     3.8744672608E-02     3.8737168313E-02
     3.8729666925E-02     3.8722168441E-02     3.8714672861E-02     3.8707180182E-02
     3.8699690402E-02     3.8692203521E-02     3.8684719536E-02     3.8677238445E-02
     3.8669760247E-02     3.8662284941E-02     3.8654812524E-02     3.8647342995E-02
     3.8639876352E-02     3.8632412594E-02     3.8624951719E-02     3.8617493725E-02
     3.8610038610E-02     3.8602586373E-02     3.8595137013E-02     3.8587690527E-02
     3.8580246914E-02     3.8572806172E-02     3.8565368299E-02     3.8557933295E-02
     3.8550501157E-02     3.8543071883E-02     3.8535645472E-02     3.8528221923E-02
     3.8520801233E-02     3.8513383401E-02     3.8505968425E-02     3.8498556304E-02
     3.8491147036E-02     3.8483740620E-02     3.8476337053E-02     3.8468936334E-02
     3.8461538462E-02     3.8454143434E-02     3.8446751250E-02     3.8439361907E-02
     3.8431975404E-02     3.8424591739E-02     3.8417210910E-02     3.8409832917E-02
     3.8402457757E-02     3.8395085429E-02     3.8387715931E-02     3.8380349261E-02
     3.8372985418E-02     3.8365624401E-02     3.8358266206E-02     3.8350910834E-02
     3.8343558282E-02     3.8336208549E-02     3.8328861633E-02     3.8321517532E-02
     3.8314176245E-02     3.8306837771E-02     3.8299502106E-02     3.8292169251E-02
     3.8284839204E-02     3.8277511962E-02     3.8270187524E-02     3.8262865889E-02
     3.8255547054E-02     3.8248231019E-02     3.8240917782E-02     3.8233607341E-02
     3.8226299694E-02     3.8218994840E-02     3.8211692778E-02     3.8204393505E-02
     3.8197097021E-02     3.8189803323E-02     3.8182512409E-02     3.8175224279E-02
     3.8167938931E-02     3.8160656363E-02     3.8153376574E-02     3.8146099561E-02
     3.8138825324E-02     3.8131553861E-02     3.8124285170E-02     3.8117019249E-02
     3.8109756098E-02     3.8102495713E-02     3.8095238095E-02     3.8087983241E-02
     3.8080731150E-02     3.8073481820E-02     3.8066235249E-02     3.8058991437E-02
     3.8051750381E-02     3.8044512079E-02     3.8037276531E-02     3.8030043735E-02
     3.8022813688E-02     3.8015586390E-02     3.8008361840E-02     3.8001140034E-02
     3.7993920973E-02     3.7986704653E-02     3.7979491075E-02     3.7972280235E-02
     3.7965072134E-02     3.7957866768E-02     3.7950664137E-02     3.7943464238E-02
     3.7936267071E-02     3.7929072634E-02     3.7921880925E-02     3.7914691943E-02
     3.7907505686E-02     3.7900322153E-02     3.7893141341E-02     3.7885963251E-02
     3.7878787879E-02     3.7871615224E-02     3.7864445286E-02     3.7857278062E-02
     3.7850113550E-02     3.7842951750E-02     3.7835792660E-02     3.7828636278E-02
     3.7821482602E-02     3.7814331632E-02     3.7807183365E-02     3.7800037800E-02
     3.7792894936E-02     3.7785754770E-02     3.7778617303E-02     3.7771482531E-02
     3.7764350453E-02     3.7757221069E-02     3.7750094375E-02     3.7742970372E-02
     3.7735849057E-02     3.7728730428E-02     3.7721614485E-02     3.7714501226E-02
     3.7707390649E-02     3.7700282752E-02     3.7693177535E-02     3.7686074995E-02
     3.7678975132E-02     3.7671877943E-02     3.7664783427E-02     3.7657691584E-02
     3.7650602410E-02     3.7643515904E-02     3.7636432066E-02     3.7629350894E-02
     3.7622272385E-02     3.7615196539E-02     3.7608123355E-02     3.7601052829E-02
     3.7593984962E-02     3.7586919752E-02     3.7579857197E-02     3.7572797295E-02
     3.7565740045E-02     3.7558685446E-02     3.7551633496E-02     3.7544584194E-02
     3.7537537538E-02     3.7530493526E-02     3.7523452158E-02     3.7516413431E-02
     3.7509377344E-02     3.7502343896E-02     3.7495313086E-02     3.7488284911E-02
     3.7481259370E-02     3.7474236462E-02     3.7467216186E-02     3.7460198539E-02
     3.7453183521E-02     3.7446171129E-02     3.7439161363E-02     3.7432154220E-02
     3.7425149701E-02     3.7418147802E-02     3.7411148522E-02     3.7404151861E-02
     3.7397157816E-02     3.7390166386E-02     3.7383177570E-02     3.7376191366E-02
     3.7369207773E-02     3.7362226789E-02     3.7355248412E-02     3.7348272642E-02
     3.7341299477E-02     3.7334328915E-02     3.7327360956E-02     3.7320395596E-02
     3.7313432836E-02     3.7306472673E-02     3.7299515106E-02     3.7292560134E-02
     3.7285607755E-02     3.7278657968E-02     3.7271710772E-02     3.7264766164E-02
     3.7257824143E-02     3.7250884709E-02     3.7243947858E-02     3.7237013592E-02
     3.7230081906E-02     3.7223152801E-02     3.7216226275E-02     3.7209302326E-02
     3.7202380952E-02     3.7195462154E-02     3.7188545928E-02     3.7181632274E-02
     3.7174721190E-02     3.7167812674E-02     3.7160906726E-02     3.7154003344E-02
     3.7147102526E-02     3.7140204271E-02     3.7133308578E-02     3.7126415445E-02
     3.7119524870E-02     3.7112636853E-02     3.7105751391E-02     3.7098868485E-02
     3.7091988131E-02     3.7085110328E-02     3.7078235076E-02     3.7071362373E-02
     3.7064492216E-02     3.7057624606E-02     3.7050759541E-02     3.7043897018E-02
     3.7037037037E-02     3.7030179596E-02     3.7023324695E-02     3.7016472330E-02
     3.7009622502E-02     3.7002775208E-02     3.6995930448E-02     3.6989088219E-02
     3.6982248521E-02     3.6975411351E-02     3.6968576710E-02     3.6961744594E-02
     3.6954915004E-02     3.6948087936E-02     3.6941263391E-02     3.6934441367E-02
     3.6927621861E-02     3.6920804874E-02     3.6913990402E-02     3.6907178446E-02
     3.6900369004E-02     3.6893562073E-02     3.6886757654E-02     3.6879955744E-02
     3.6873156342E-02     3.6866359447E-02     3.6859565057E-02     3.6852773171E-02
     3.6845983788E-02     3.6839196906E-02     3.6832412523E-02     3.6825630639E-02
     3.6818851252E-02     3.6812074360E-02     3.6805299963E-02     3.6798528059E-02
     3.6791758646E-02     3.6784991723E-02     3.6778227289E-02     3.6771465343E-02
     3.6764705882E-02     3.6757948906E-02     3.6751194414E-02     3.6744442403E-02
     3.6737692873E-02     3.6730945822E-02     3.6724201249E-02     3.6717459152E-02
     3.6710719530E-02     3.6703982382E-02     3.6697247706E-02     3.6690515502E-02
     3.6683785767E-02     3.6677058500E-02     3.6670333700E-02     3.6663611366E-02
     3.6656891496E-02     3.6650174088E-02     3.6643459143E-02     3.6636746657E-02
     3.6630036630E-02     3.6623329061E-02     3.6616623947E-02     3.6609921289E-02
     3.6603221083E-02     3.6596523330E-02     3.6589828028E-02     3.6583135175E-02
     3.6576444770E-02     3.6569756811E-02     3.6563071298E-02     3.6556388229E-02
     3.6549707602E-02     3.6543029417E-02     3.6536353672E-02     3.6529680365E-02
     3.6523009496E-02     3.6516341063E-02     3.6509675064E-02     3.6503011498E-02
     3.6496350365E-02     3.6489691662E-02     3.6483035389E-02     3.6476381543E-02
     3.6469730124E-02     3.6463081130E-02     3.6456434561E-02     3.6449790414E-02
     3.6443148688E-02     3.6436509382E-02     3.6429872495E-02     3.6423238026E-02
     3.6416605972E-02     3.6409976334E-02     3.6403349108E-02     3.6396724295E-02
     3.6390101892E-02     3.6383481899E-02     3.6376864314E-02     3.6370249136E-02
     3.6363636364E-02     3.6357025995E-02     3.6350418030E-02     3.6343812466E-02
     3.6337209302E-02     3.6330608538E-02     3.6324010171E-02     3.6317414200E-02
     3.6310820625E-02     3.6304229443E-02     3.6297640653E-02     3.6291054255E-02
     3.6284470247E-02     3.6277888627E-02     3.6271309394E-02     3.6264732548E-02
     3.6258158086E-02     3.6251586007E-02     3.6245016310E-02     3.6238448994E-02
     3.6231884058E-02     3.6225321500E-02     3.6218761318E-02     3.6212203513E-02
     3.6205648081E-02     3.6199095023E-02     3.6192544336E-02     3.6185996020E-02
     3.6179450072E-02     3.6172906493E-02     3.6166365280E-02     3.6159826433E-02
     3.6153289949E-02     3.6146755829E-02     3.6140224069E-02     3.6133694670E-02
     3.6127167630E-02     3.6120642947E-02     3.6114120621E-02     3.6107600650E-02
     3.6101083032E-02     3.6094567768E-02     3.6088054854E-02     3.6081544290E-02
     3.6075036075E-02     3.6068530207E-02     3.6062026686E-02     3.6055525509E-02
     3.6049026676E-02     3.6042530186E-02     3.6036036036E-02     3.6029544226E-02
     3.6023054755E-02     3.6016567621E-02     3.6010082823E-02     3.6003600360E-02
     3.5997120230E-02     3.5990642433E-02     3.5984166967E-02     3.5977693830E-02
     3.5971223022E-02     3.5964754541E-02     3.5958288385E-02     3.5951824555E-02
     3.5945363048E-02     3.5938903863E-02     3.5932447000E-02     3.5925992456E-02
     3.5919540230E-02     3.5913090321E-02     3.5906642729E-02     3.5900197451E-02
     3.5893754487E-02     3.5887313835E-02     3.5880875493E-02     3.5874439462E-02
     3.5868005739E-02     3.5861574323E-02     3.5855145213E-02     3.5848718408E-02
     3.5842293907E-02     3.5835871708E-02     3.5829451809E-02     3.5823034211E-02
     3.5816618911E-02     3.5810205909E-02     3.5803795202E-02     3.5797386791E-02
     3.5790980673E-02     3.5784576847E-02     3.5778175313E-02     3.5771776069E-02
     3.5765379113E-02     3.5758984445E-02     3.5752592063E-02     3.5746201966E-02
     3.5739814153E-02     3.5733428622E-02     3.5727045373E-02     3.5720664404E-02
     3.5714285714E-02     3.5707909302E-02     3.5701535166E-02     3.5695163305E-02
     3.5688793719E-02     3.5682426405E-02     3.5676061363E-02     3.5669698591E-02
     3.5663338088E-02     3.5656979854E-02     3.5650623886E-02     3.5644270184E-02
     3.5637918746E-02     3.5631569571E-02     3.5625222658E-02     3.5618878005E-02
     3.5612535613E-02     3.5606195478E-02     3.5599857601E-02     3.5593521979E-02
     3.5587188612E-02     3.5580857499E-02     3.5574528637E-02     3.5568202027E-02
     3.5561877667E-02     3.5555555556E-02     3.5549235691E-02     3.5542918074E-02
     3.5536602701E-02     3.5530289572E-02     3.5523978686E-02     3.5517670041E-02
     3.5511363636E-02     3.5505059471E-02     3.5498757543E-02     3.5492457853E-02
     3.5486160397E-02     3.5479865177E-02     3.5473572189E-02     3.5467281433E-02
     3.5460992908E-02     3.5454706612E-02     3.5448422545E-02     3.5442140705E-02
     3.5435861091E-02     3.5429583702E-02     3.5423308537E-02     3.5417035594E-02
     3.5410764873E-02     3.5404496371E-02     3.5398230088E-02     3.5391966024E-02
     3.5385704176E-02     3.5379444543E-02     3.5373187124E-02     3.5366931919E-02
     3.5360678925E-02     3.5354428142E-02     3.5348179569E-02     3.5341933204E-02
     3.5335689046E-02     3.5329447094E-02     3.5323207347E-02     3.5316969804E-02
     3.5310734463E-02     3.5304501324E-02     3.5298270385E-02     3.5292041645E-02
     3.5285815102E-02     3.5279590757E-02     3.5273368607E-02     3.5267148651E-02
     3.5260930889E-02     3.5254715318E-02     3.5248501939E-02     3.5242290749E-02
     3.5236081748E-02     3.5229874934E-02     3.5223670306E-02     3.5217467864E-02
     3.5211267606E-02     3.5205069530E-02     3.5198873636E-02     3.5192679923E-02
     3.5186488388E-02     3.5180299033E-02     3.5174111854E-02     3.5167926851E-02
     3.5161744023E-02     3.5155563368E-02     3.5149384886E-02     3.5143208575E-02
     3.5137034434E-02     3.5130862463E-02     3.5124692659E-02     3.5118525022E-02
     3.5112359551E-02     3.5106196244E-02     3.5100035100E-02     3.5093876119E-02
     3.5087719298E-02     3.5081564638E-02     3.5075412136E-02     3.5069261792E-02
     3.5063113604E-02     3.5056967572E-02     3.5050823694E-02     3.5044681970E-02
     3.5038542397E-02     3.5032404975E-02     3.5026269702E-02     3.5020136579E-02
     3.5014005602E-02     3.5007876772E-02     3.5001750088E-02     3.4995625547E-02
     3.4989503149E-02     3.4983382893E-02     3.4977264778E-02     3.4971148802E-02
     3.4965034965E-02     3.4958923265E-02     3.4952813702E-02     3.4946706273E-02
     3.4940600978E-02     3.4934497817E-02     3.4928396787E-02     3.4922297887E-02
     3.4916201117E-02     3.4910106476E-02     3.4904013962E-02     3.4897923574E-02
     3.4891835311E-02     3.4885749171E-02     3.4879665155E-02     3.4873583261E-02
     3.4867503487E-02     3.4861425832E-02     3.4855350296E-02     3.4849276878E-02
     3.4843205575E-02     3.4837136387E-02     3.4831069314E-02     3.4825004353E-02
     3.4818941504E-02     3.4812880766E-02     3.4806822137E-02     3.4800765617E-02
     3.4794711204E-02     3.4788658897E-02     3.4782608696E-02     3.4776560598E-02
     3.4770514604E-02     3.4764470711E-02     3.4758428919E-02     3.4752389227E-02
     3.4746351633E-02     3.4740316137E-02     3.4734282737E-02     3.4728251433E-02
     3.4722222222E-02     3.4716195105E-02     3.4710170080E-02     3.4704147146E-02
     3.4698126301E-02     3.4692107546E-02     3.4686090878E-02     3.4680076296E-02
     3.4674063800E-02     3.4668053389E-02     3.4662045061E-02     3.4656038815E-02
     3.4650034650E-02     3.4644032565E-02     3.4638032560E-02     3.4632034632E-02
     3.4626038781E-02     3.4620045006E-02     3.4614053306E-02     3.4608063679E-02
     3.4602076125E-02     3.4596090642E-02     3.4590107229E-02     3.4584125886E-02
     3.4578146611E-02     3.4572169404E-02     3.4566194262E-02     3.4560221185E-02
     3.4554250173E-02     3.4548281223E-02     3.4542314335E-02     3.4536349508E-02
     3.4530386740E-02     3.4524426031E-02     3.4518467380E-02     3.4512510785E-02
     3.4506556246E-02     3.4500603761E-02     3.4494653329E-02     3.4488704949E-02
     3.4482758621E-02     3.4476814342E-02     3.4470872113E-02     3.4464931932E-02
     3.4458993797E-02     3.4453057709E-02     3.4447123665E-02     3.4441191665E-02
     3.4435261708E-02     3.4429333792E-02     3.4423407917E-02     3.4417484082E-02
     3.4411562285E-02     3.4405642525E-02     3.4399724802E-02     3.4393809114E-02
     3.4387895461E-02     3.4381983840E-02     3.4376074252E-02     3.4370166695E-02
     3.4364261168E-02     3.4358357671E-02     3.4352456201E-02     3.4346556758E-02
     3.4340659341E-02     3.4334763948E-02     3.4328870580E-02     3.4322979235E-02
     3.4317089911E-02     3.4311202608E-02     3.4305317324E-02     3.4299434059E-02
     3.4293552812E-02     3.4287673581E-02     3.4281796366E-02     3.4275921165E-02
     3.4270047978E-02     3.4264176803E-02     3.4258307640E-02     3.4252440486E-02
     3.4246575342E-02     3.4240712207E-02     3.4234851078E-02     3.4228991956E-02
     3.4223134839E-02     3.4217279726E-02     3.4211426616E-02     3.4205575509E-02
     3.4199726402E-02     3.4193879296E-02     3.4188034188E-02     3.4182191078E-02
     3.4176349966E-02     3.4170510849E-02     3.4164673727E-02     3.4158838599E-02
     3.4153005464E-02     3.4147174321E-02     3.4141345169E-02     3.4135518006E-02
     3.4129692833E-02     3.4123869647E-02     3.4118048448E-02     3.4112229234E-02
     3.4106412005E-02     3.4100596760E-02     3.4094783498E-02     3.4088972217E-02
     3.4083162918E-02     3.4077355597E-02     3.4071550256E-02     3.4065746892E-02
     3.4059945504E-02     3.4054146092E-02     3.4048348655E-02     3.4042553191E-02
     3.4036759700E-02     3.4030968181E-02     3.4025178632E-02     3.4019391053E-02
     3.4013605442E-02     3.4007821799E-02     3.4002040122E-02     3.3996260411E-02
     3.3990482665E-02     3.3984706882E-02     3.3978933062E-02     3.3973161203E-02
     3.3967391304E-02     3.3961623366E-02     3.3955857385E-02     3.3950093363E-02
     3.3944331297E-02     3.3938571186E-02     3.3932813030E-02     3.3927056828E-02
     3.3921302578E-02     3.3915550280E-02     3.3909799932E-02     3.3904051534E-02
     3.3898305085E-02     3.3892560583E-02     3.3886818028E-02     3.3881077418E-02
     3.3875338753E-02     3.3869602032E-02     3.3863867254E-02     3.3858134417E-02
     3.3852403521E-02     3.3846674564E-02     3.3840947547E-02     3.3835222467E-02
     3.3829499323E-02     3.3823778116E-02     3.3818058843E-02     3.3812341505E-02
     3.3806626099E-02     3.3800912625E-02     3.3795201081E-02     3.3789491468E-02
     3.3783783784E-02     3.3778078027E-02     3.3772374198E-02     3.3766672294E-02
     3.3760972316E-02     3.3755274262E-02     3.3749578130E-02     3.3743883921E-02
     3.3738191633E-02     3.3732501265E-02     3.3726812816E-02     3.3721126286E-02
     3.3715441672E-02     3.3709758975E-02     3.3704078193E-02     3.3698399326E-02
     3.3692722372E-02     3.3687047330E-02     3.3681374200E-02     3.3675702980E-02
     3.3670033670E-02     3.3664366268E-02     3.3658700774E-02     3.3653037187E-02
     3.3647375505E-02     3.3641715728E-02     3.3636057854E-02     3.3630401883E-02
     3.3624747814E-02     3.3619095646E-02     3.3613445378E-02     3.3607797009E-02
     3.3602150538E-02     3.3596505963E-02     3.3590863285E-02     3.3585222502E-02
     3.3579583613E-02     3.3573946617E-02     3.3568311514E-02     3.3562678302E-02
     3.3557046980E-02     3.3551417547E-02     3.3545790003E-02     3.3540164347E-02
     3.3534540577E-02     3.3528918692E-02     3.3523298693E-02     3.3517680577E-02
     3.3512064343E-02     3.3506449992E-02     3.3500837521E-02     3.3495226930E-02
     3.3489618218E-02     3.3484011385E-02     3.3478406428E-02     3.3472803347E-02
     3.3467202142E-02     3.3461602811E-02     3.3456005353E-02     3.3450409768E-02
     3.3444816054E-02     3.3439224210E-02     3.3433634236E-02     3.3428046131E-02
     3.3422459893E-02     3.3416875522E-02     3.3411293017E-02     3.3405712377E-02
     3.3400133601E-02     3.3394556687E-02     3.3388981636E-02     3.3383408446E-02
     3.3377837116E-02     3.3372267646E-02     3.3366700033E-02     3.3361134279E-02
     3.3355570380E-02     3.3350008338E-02     3.3344448149E-02     3.3338889815E-02
     3.3333333333E-02     3.3327778704E-02     3.3322225925E-02     3.3316674996E-02
     3.3311125916E-02     3.3305578684E-02     3.3300033300E-02     3.3294489762E-02
     3.3288948069E-02     3.3283408221E-02     3.3277870216E-02     3.3272334054E-02
     3.3266799734E-02     3.3261267254E-02     3.3255736615E-02     3.3250207814E-02
     3.3244680851E-02     3.3239155725E-02     3.3233632436E-02     3.3228110982E-02
     3.3222591362E-02     3.3217073576E-02     3.3211557622E-02     3.3206043500E-02
     3.3200531208E-02     3.3195020747E-02     3.3189512114E-02     3.3184005309E-02
     3.3178500332E-02     3.3172997180E-02     3.3167495854E-02     3.3161996352E-02
     3.3156498674E-02     3.3151002818E-02     3.3145508784E-02     3.3140016570E-02
     3.3134526176E-02     3.3129037601E-02     3.3123550845E-02     3.3118065905E-02
     3.3112582781E-02     3.3107101473E-02     3.3101621979E-02     3.3096144299E-02
     3.3090668432E-02     3.3085194376E-02     3.3079722130E-02     3.3074251695E-02
     3.3068783069E-02     3.3063316251E-02     3.3057851240E-02     3.3052388035E-02
     3.3046926636E-02     3.3041467041E-02     3.3036009250E-02     3.3030553262E-02
     3.3025099075E-02     3.3019646690E-02     3.3014196104E-02     3.3008747318E-02
     3.3003300330E-02     3.2997855139E-02     3.2992411745E-02     3.2986970147E-02
     3.2981530343E-02     3.2976092333E-02     3.2970656116E-02     3.2965221691E-02
     3.2959789057E-02     3.2954358214E-02     3.2948929160E-02     3.2943501894E-02
     3.2938076416E-02     3.2932652725E-02     3.2927230820E-02     3.2921810700E-02
     3.2916392363E-02     3.2910975810E-02     3.2905561040E-02     3.2900148051E-02
     3.2894736842E-02     3.2889327413E-02     3.2883919763E-02     3.2878513891E-02
     3.2873109796E-02     3.2867707477E-02     3.2862306934E-02     3.2856908165E-02
     3.2851511170E-02     3.2846115947E-02     3.2840722496E-02     3.2835330816E-02
     3.2829940906E-02     3.2824552765E-02     3.2819166393E-02     3.2813781788E-02
     3.2808398950E-02     3.2803017878E-02     3.2797638570E-02     3.2792261026E-02
     3.2786885246E-02     3.2781511228E-02     3.2776138971E-02     3.2770768475E-02
     3.2765399738E-02     3.2760032760E-02     3.2754667540E-02     3.2749304077E-02
     3.2743942371E-02     3.2738582419E-02     3.2733224223E-02     3.2727867779E-02
     3.2722513089E-02     3.2717160150E-02     3.2711808963E-02     3.2706459526E-02
     3.2701111838E-02     3.2695765898E-02     3.2690421706E-02     3.2685079261E-02
     3.2679738562E-02     3.2674399608E-02     3.2669062398E-02     3.2663726931E-02
     3.2658393207E-02     3.2653061224E-02     3.2647730983E-02     3.2642402481E-02
     3.2637075718E-02     3.2631750693E-02     3.2626427406E-02     3.2621105855E-02
     3.2615786040E-02     3.2610467960E-02     3.2605151614E-02     3.2599837001E-02
     3.2594524120E-02     3.2589212971E-02     3.2583903552E-02     3.2578595863E-02
     3.2573289902E-02     3.2567985670E-02     3.2562683165E-02     3.2557382386E-02
     3.2552083333E-02     3.2546786005E-02     3.2541490400E-02     3.2536196519E-02
     3.2530904359E-02     3.2525613921E-02     3.2520325203E-02     3.2515038205E-02
     3.2509752926E-02     3.2504469365E-02     3.2499187520E-02     3.2493907392E-02
     3.2488628980E-02     3.2483352282E-02     3.2478077298E-02     3.2472804027E-02
     3.2467532468E-02     3.2462262620E-02     3.2456994482E-02     3.2451728055E-02
     3.2446463335E-02     3.2441200324E-02     3.2435939020E-02     3.2430679423E-02
     3.2425421530E-02     3.2420165343E-02     3.2414910859E-02     3.2409658078E-02
     3.2404406999E-02     3.2399157622E-02     3.2393909945E-02     3.2388663968E-02
     3.2383419689E-02     3.2378177109E-02     3.2372936225E-02     3.2367697038E-02
     3.2362459547E-02     3.2357223750E-02     3.2351989647E-02     3.2346757238E-02
     3.2341526520E-02     3.2336297494E-02     3.2331070158E-02     3.2325844513E-02
     3.2320620556E-02     3.2315398287E-02     3.2310177706E-02     3.2304958811E-02
     3.2299741602E-02     3.2294526078E-02     3.2289312238E-02     3.2284100081E-02
     3.2278889606E-02     3.2273680813E-02     3.2268473701E-02     3.2263268269E-02
     3.2258064516E-02     3.2252862442E-02     3.2247662045E-02     3.2242463324E-02
     3.2237266280E-02     3.2232070911E-02     3.2226877216E-02     3.2221685194E-02
     3.2216494845E-02     3.2211306168E-02     3.2206119163E-02     3.2200933827E-02
     3.2195750161E-02     3.2190568164E-02     3.2185387834E-02     3.2180209171E-02
     3.2175032175E-02     3.2169856844E-02     3.2164683178E-02     3.2159511175E-02
     3.2154340836E-02     3.2149172159E-02     3.2144005143E-02     3.2138839788E-02
     3.2133676093E-02     3.2128514056E-02     3.2123353678E-02     3.2118194957E-02
     3.2113037893E-02     3.2107882485E-02     3.2102728732E-02     3.2097576633E-02
     3.2092426187E-02     3.2087277395E-02     3.2082130253E-02     3.2076984763E-02
     3.2071840924E-02     3.2066698733E-02     3.2061558192E-02     3.2056419298E-02
     3.2051282051E-02     3.2046146451E-02     3.2041012496E-02     3.2035880186E-02
     3.2030749520E-02     3.2025620496E-02     3.2020493116E-02     3.2015367376E-02
     3.2010243278E-02     3.2005120819E-02     3.2000000000E-02     3.1994880819E-02
     3.1989763276E-02     3.1984647369E-02     3.1979533099E-02     3.1974420464E-02
     3.1969309463E-02     3.1964200096E-02     3.1959092362E-02     3.1953986260E-02
     3.1948881789E-02     3.1943778949E-02     3.1938677739E-02     3.1933578157E-02
     3.1928480204E-02     3.1923383879E-02     3.1918289180E-02     3.1913196107E-02
     3.1908104659E-02     3.1903014835E-02     3.1897926635E-02     3.1892840057E-02
     3.1887755102E-02     3.1882671768E-02     3.1877590054E-02     3.1872509960E-02
     3.1867431485E-02     3.1862354628E-02     3.1857279388E-02     3.1852205765E-02
     3.1847133758E-02     3.1842063366E-02     3.1836994588E-02     3.1831927423E-02
     3.1826861871E-02     3.1821797932E-02     3.1816735603E-02     3.1811674885E-02
     3.1806615776E-02     3.1801558276E-02     3.1796502385E-02     3.1791448100E-02
     3.1786395423E-02     3.1781344351E-02     3.1776294884E-02     3.1771247021E-02
     3.1766200762E-02     3.1761156106E-02     3.1756113052E-02     3.1751071599E-02
     3.1746031746E-02     3.1740993493E-02     3.1735956839E-02     3.1730921783E-02
     3.1725888325E-02     3.1720856463E-02     3.1715826197E-02     3.1710797527E-02
     3.1705770450E-02     3.1700744968E-02     3.1695721078E-02     3.1690698780E-02
     3.1685678074E-02     3.1680658958E-02     3.1675641432E-02     3.1670625495E-02
     3.1665611146E-02     3.1660598385E-02     3.1655587211E-02     3.1650577623E-02
     3.1645569620E-02     3.1640563202E-02     3.1635558368E-02     3.1630555116E-02
     3.1625553447E-02     3.1620553360E-02     3.1615554853E-02     3.1610557926E-02
     3.1605562579E-02     3.1600568810E-02     3.1595576619E-02     3.1590586005E-02
     3.1585596968E-02     3.1580609506E-02     3.1575623619E-02     3.1570639305E-02
     3.1565656566E-02     3.1560675398E-02     3.1555695803E-02     3.1550717779E-02
     3.1545741325E-02     3.1540766441E-02     3.1535793125E-02     3.1530821378E-02
     3.1525851198E-02     3.1520882585E-02     3.1515915537E-02     3.1510950055E-02
     3.1505986137E-02     3.1501023783E-02     3.1496062992E-02     3.1491103763E-02
     3.1486146096E-02     3.1481189989E-02     3.1476235442E-02     3.1471282455E-02
     3.1466331026E-02     3.1461381155E-02     3.1456432841E-02     3.1451486083E-02
     3.1446540881E-02     3.1441597233E-02     3.1436655140E-02     3.1431714600E-02
     3.1426775613E-02     3.1421838178E-02     3.1416902293E-02     3.1411967960E-02
     3.1407035176E-02     3.1402103941E-02     3.1397174254E-02     3.1392246115E-02
     3.1387319523E-02     3.1382394477E-02     3.1377470976E-02     3.1372549020E-02
     3.1367628607E-02     3.1362709738E-02     3.1357792411E-02     3.1352876626E-02
     3.1347962382E-02     3.1343049679E-02     3.1338138515E-02     3.1333228889E-02
     3.1328320802E-02     3.1323414252E-02     3.1318509239E-02     3.1313605762E-02
     3.1308703820E-02     3.1303803412E-02     3.1298904538E-02     3.1294007198E-02
     3.1289111389E-02     3.1284217112E-02     3.1279324367E-02     3.1274433151E-02
     3.1269543465E-02     3.1264655307E-02     3.1259768678E-02     3.1254883576E-02
     3.1250000000E-02     3.1245117950E-02     3.1240237426E-02     3.1235358426E-02
     3.1230480949E-02     3.1225604996E-02     3.1220730565E-02     3.1215857656E-02
     3.1210986267E-02     3.1206116399E-02     3.1201248050E-02     3.1196381220E-02
     3.1191515908E-02     3.1186652113E-02     3.1181789835E-02     3.1176929072E-02
     3.1172069825E-02     3.1167212093E-02     3.1162355874E-02     3.1157501168E-02
     3.1152647975E-02     3.1147796293E-02     3.1142946123E-02     3.1138097462E-02
     3.1133250311E-02     3.1128404669E-02     3.1123560535E-02     3.1118717909E-02
     3.1113876789E-02     3.1109037175E-02     3.1104199067E-02     3.1099362463E-02
     3.1094527363E-02     3.1089693767E-02     3.1084861672E-02     3.1080031080E-02
     3.1075201989E-02     3.1070374398E-02     3.1065548307E-02     3.1060723715E-02
     3.1055900621E-02     3.1051079025E-02     3.1046258926E-02     3.1041440323E-02
     3.1036623215E-02     3.1031807603E-02     3.1026993484E-02     3.1022180859E-02
     3.1017369727E-02     3.1012560087E-02     3.1007751938E-02     3.1002945280E-02
     3.0998140112E-02     3.0993336433E-02     3.0988534242E-02     3.0983733540E-02
     3.0978934325E-02     3.0974136596E-02     3.0969340353E-02     3.0964545595E-02
     3.0959752322E-02     3.0954960532E-02     3.0950170226E-02     3.0945381402E-02
     3.0940594059E-02     3.0935808198E-02     3.0931023817E-02     3.0926240915E-02
     3.0921459493E-02     3.0916679549E-02     3.0911901082E-02     3.0907124092E-02
     3.0902348578E-02     3.0897574540E-02     3.0892801977E-02     3.0888030888E-02
     3.0883261272E-02     3.0878493130E-02     3.0873726459E-02     3.0868961259E-02
     3.0864197531E-02     3.0859435272E-02     3.0854674483E-02     3.0849915163E-02
     3.0845157310E-02     3.0840400925E-02     3.0835646007E-02     3.0830892554E-02
     3.0826140567E-02     3.0821390045E-02     3.0816640986E-02     3.0811893391E-02
     3.0807147258E-02     3.0802402587E-02     3.0797659378E-02     3.0792917629E-02
     3.0788177340E-02     3.0783438510E-02     3.0778701139E-02     3.0773965225E-02
     3.0769230769E-02     3.0764497770E-02     3.0759766226E-02     3.0755036137E-02
     3.0750307503E-02     3.0745580323E-02     3.0740854596E-02     3.0736130321E-02
     3.0731407498E-02     3.0726686127E-02     3.0721966206E-02     3.0717247735E-02
     3.0712530713E-02     3.0707815139E-02     3.0703101013E-02     3.0698388335E-02
     3.0693677103E-02     3.0688967316E-02     3.0684258975E-02     3.0679552079E-02
     3.0674846626E-02     3.0670142616E-02     3.0665440049E-02     3.0660738924E-02
     3.0656039240E-02     3.0651340996E-02     3.0646644192E-02     3.0641948828E-02
     3.0637254902E-02     3.0632562414E-02     3.0627871363E-02     3.0623181749E-02
     3.0618493570E-02     3.0613806827E-02     3.0609121518E-02     3.0604437643E-02
     3.0599755202E-02     3.0595074193E-02     3.0590394616E-02     3.0585716470E-02
     3.0581039755E-02     3.0576364470E-02     3.0571690614E-02     3.0567018187E-02
     3.0562347188E-02     3.0557677617E-02     3.0553009471E-02     3.0548342752E-02
     3.0543677459E-02     3.0539013590E-02     3.0534351145E-02     3.0529690124E-02
     3.0525030525E-02     3.0520372349E-02     3.0515715594E-02     3.0511060259E-02
     3.0506406345E-02     3.0501753851E-02     3.0497102775E-02     3.0492453118E-02
     3.0487804878E-02     3.0483158055E-02     3.0478512649E-02     3.0473868658E-02
     3.0469226082E-02     3.0464584920E-02     3.0459945172E-02     3.0455306837E-02
     3.0450669915E-02     3.0446034404E-02     3.0441400304E-02     3.0436767615E-02
     3.0432136336E-02     3.0427506466E-02     3.0422878004E-02     3.0418250951E-02
     3.0413625304E-02     3.0409001064E-02     3.0404378230E-02     3.0399756802E-02
     3.0395136778E-02     3.0390518158E-02     3.0385900942E-02     3.0381285128E-02
     3.0376670717E-02     3.0372057707E-02     3.0367446098E-02     3.0362835889E-02
     3.0358227080E-02     3.0353619669E-02     3.0349013657E-02     3.0344409043E-02
     3.0339805825E-02     3.0335204004E-02     3.0330603579E-02     3.0326004549E-02
     3.0321406913E-02     3.0316810672E-02     3.0312215823E-02     3.0307622367E-02
     3.0303030303E-02     3.0298439630E-02     3.0293850348E-02     3.0289262456E-02
     3.0284675954E-02     3.0280090840E-02     3.0275507115E-02     3.0270924777E-02
     3.0266343826E-02     3.0261764261E-02     3.0257186082E-02     3.0252609288E-02
     3.0248033878E-02     3.0243459852E-02     3.0238887209E-02     3.0234315949E-02
     3.0229746070E-02     3.0225177573E-02     3.0220610456E-02     3.0216044720E-02
     3.0211480363E-02     3.0206917384E-02     3.0202355784E-02     3.0197795561E-02
     3.0193236715E-02     3.0188679245E-02     3.0184123151E-02     3.0179568432E-02
     3.0175015088E-02     3.0170463117E-02     3.0165912519E-02     3.0161363294E-02
     3.0156815440E-02     3.0152268958E-02     3.0147723847E-02     3.0143180106E-02
     3.0138637734E-02     3.0134096730E-02     3.0129557096E-02     3.0125018828E-02
     3.0120481928E-02     3.0115946394E-02     3.0111412225E-02     3.0106879422E-02
     3.0102347983E-02     3.0097817908E-02     3.0093289197E-02     3.0088761847E-02
     3.0084235860E-02     3.0079711235E-02     3.0075187970E-02     3.0070666065E-02
     3.0066145520E-02     3.0061626334E-02     3.0057108506E-02     3.0052592036E-02
     3.0048076923E-02     3.0043563167E-02     3.0039050766E-02     3.0034539721E-02
     3.0030030030E-02     3.0025521693E-02     3.0021014710E-02     3.0016509080E-02
     3.0012004802E-02     3.0007501875E-02     3.0003000300E-02     2.9998500075E-02
     2.9994001200E-02     2.9989503674E-02     2.9985007496E-02     2.9980512667E-02
     2.9976019185E-02     2.9971527049E-02     2.9967036260E-02     2.9962546816E-02
     2.9958058718E-02     2.9953571963E-02     2.9949086553E-02     2.9944602485E-02
     2.9940119760E-02     2.9935638377E-02     2.9931158336E-02     2.9926679635E-02
     2.9922202274E-02     2.9917726253E-02     2.9913251570E-02     2.9908778226E-02
     2.9904306220E-02     2.9899835551E-02     2.9895366218E-02     2.9890898221E-02
     2.9886431560E-02     2.9881966233E-02     2.9877502241E-02     2.9873039582E-02
     2.9868578256E-02     2.9864118262E-02     2.9859659600E-02     2.9855202269E-02
     2.9850746269E-02     2.9846291598E-02     2.9841838257E-02     2.9837386245E-02
     2.9832935561E-02     2.9828486204E-02     2.9824038175E-02     2.9819591472E-02
     2.9815146094E-02     2.9810702042E-02     2.9806259314E-02     2.9801817911E-02
     2.9797377831E-02     2.9792939073E-02     2.9788501638E-02     2.9784065525E-02
     2.9779630733E-02     2.9775197261E-02     2.9770765109E-02     2.9766334276E-02
     2.9761904762E-02     2.9757476566E-02     2.9753049688E-02     2.9748624126E-02
     2.9744199881E-02     2.9739776952E-02     2.9735355337E-02     2.9730935038E-02
     2.9726516052E-02     2.9722098380E-02     2.9717682021E-02     2.9713266974E-02
     2.9708853238E-02     2.9704440814E-02     2.9700029700E-02     2.9695619896E-02
     2.9691211401E-02     2.9686804216E-02     2.9682398338E-02     2.9677993768E-02
     2.9673590504E-02     2.9669188548E-02     2.9664787897E-02     2.9660388551E-02
     2.9655990510E-02     2.9651593773E-02     2.9647198340E-02     2.9642804209E-02
     2.9638411381E-02     2.9634019855E-02     2.9629629630E-02     2.9625240705E-02
     2.9620853081E-02     2.9616466756E-02     2.9612081729E-02     2.9607698001E-02
     2.9603315571E-02     2.9598934438E-02     2.9594554602E-02     2.9590176062E-02
     2.9585798817E-02     2.9581422866E-02     2.9577048211E-02     2.9572674848E-02
     2.9568302779E-02     2.9563932003E-02     2.9559562518E-02     2.9555194325E-02
     2.9550827423E-02     2.9546461811E-02     2.9542097489E-02     2.9537734456E-02
     2.9533372711E-02     2.9529012255E-02     2.9524653085E-02     2.9520295203E-02
     2.9515938607E-02     2.9511583296E-02     2.9507229271E-02     2.9502876530E-02
     2.9498525074E-02     2.9494174900E-02     2.9489826010E-02     2.9485478402E-02
     2.9481132075E-02     2.9476787030E-02     2.9472443266E-02     2.9468100781E-02
     2.9463759576E-02     2.9459419649E-02     2.9455081001E-02     2.9450743631E-02
     2.9446407538E-02     2.9442072722E-02     2.9437739182E-02     2.9433406917E-02
     2.9429075927E-02     2.9424746212E-02     2.9420417770E-02     2.9416090602E-02
     2.9411764706E-02     2.9407440082E-02     2.9403116730E-02     2.9398794649E-02
     2.9394473839E-02     2.9390154298E-02     2.9385836027E-02     2.9381519025E-02
     2.9377203290E-02     2.9372888824E-02     2.9368575624E-02     2.9364263691E-02
     2.9359953024E-02     2.9355643622E-02     2.9351335486E-02     2.9347028613E-02
     2.9342723005E-02     2.9338418659E-02     2.9334115576E-02     2.9329813756E-02
     2.9325513196E-02     2.9321213898E-02     2.9316915860E-02     2.9312619083E-02
     2.9308323564E-02     2.9304029304E-02     2.9299736302E-02     2.9295444558E-02
     2.9291154071E-02     2.9286864841E-02     2.9282576867E-02     2.9278290148E-02
     2.9274004684E-02     2.9269720474E-02     2.9265437518E-02     2.9261155816E-02
     2.9256875366E-02     2.9252596168E-02     2.9248318222E-02     2.9244041527E-02
     2.9239766082E-02     2.9235491887E-02     2.9231218942E-02     2.9226947245E-02
     2.9222676797E-02     2.9218407597E-02     2.9214139644E-02     2.9209872937E-02
     2.9205607477E-02     2.9201343262E-02     2.9197080292E-02     2.9192818567E-02
     2.9188558085E-02     2.9184298847E-02     2.9180040852E-02     2.9175784099E-02
     2.9171528588E-02     2.9167274318E-02     2.9163021289E-02     2.9158769500E-02
     2.9154518950E-02     2.9150269640E-02     2.9146021568E-02     2.9141774734E-02
     2.9137529138E-02     2.9133284778E-02     2.9129041655E-02     2.9124799767E-02
     2.9120559115E-02     2.9116319697E-02     2.9112081514E-02     2.9107844564E-02
     2.9103608847E-02     2.9099374363E-02     2.9095141111E-02     2.9090909091E-02
     2.9086678301E-02     2.9082448742E-02     2.9078220413E-02     2.9073993313E-02
     2.9069767442E-02     2.9065542799E-02     2.9061319384E-02     2.9057097196E-02
     2.9052876235E-02     2.9048656500E-02     2.9044437990E-02     2.9040220706E-02
     2.9036004646E-02     2.9031789810E-02     2.9027576197E-02     2.9023363808E-02
     2.9019152641E-02     2.9014942695E-02     2.9010733972E-02     2.9006526468E-02
     2.9002320186E-02     2.8998115123E-02     2.8993911279E-02     2.8989708653E-02
     2.8985507246E-02     2.8981307057E-02     2.8977108085E-02     2.8972910329E-02
     2.8968713789E-02     2.8964518465E-02     2.8960324356E-02     2.8956131461E-02
     2.8951939780E-02     2.8947749312E-02     2.8943560058E-02     2.8939372016E-02
     2.8935185185E-02     2.8930999566E-02     2.8926815158E-02     2.8922631960E-02
     2.8918449971E-02     2.8914269192E-02     2.8910089621E-02     2.8905911259E-02
     2.8901734104E-02     2.8897558156E-02     2.8893383415E-02     2.8889209880E-02
     2.8885037551E-02     2.8880866426E-02     2.8876696506E-02     2.8872527790E-02
     2.8868360277E-02     2.8864193967E-02     2.8860028860E-02     2.8855864955E-02
     2.8851702250E-02     2.8847540747E-02     2.8843380444E-02     2.8839221341E-02
     2.8835063437E-02     2.8830906732E-02     2.8826751225E-02     2.8822596916E-02
     2.8818443804E-02     2.8814291889E-02     2.8810141170E-02     2.8805991646E-02
     2.8801843318E-02     2.8797696184E-02     2.8793550245E-02     2.8789405499E-02
     2.8785261946E-02     2.8781119586E-02     2.8776978417E-02     2.8772838441E-02
     2.8768699655E-02     2.8764562060E-02     2.8760425654E-02     2.8756290439E-02
     2.8752156412E-02     2.8748023573E-02     2.8743891923E-02     2.8739761460E-02
     2.8735632184E-02     2.8731504094E-02     2.8727377190E-02     2.8723251472E-02
     2.8719126939E-02     2.8715003589E-02     2.8710881424E-02     2.8706760442E-02
     2.8702640643E-02     2.8698522026E-02     2.8694404591E-02     2.8690288337E-02
     2.8686173264E-02     2.8682059372E-02     2.8677946659E-02     2.8673835125E-02
     2.8669724771E-02     2.8665615594E-02     2.8661507595E-02     2.8657400774E-02
     2.8653295129E-02     2.8649190660E-02     2.8645087368E-02     2.8640985250E-02
     2.8636884307E-02     2.8632784538E-02     2.8628685943E-02     2.8624588522E-02
     2.8620492272E-02     2.8616397196E-02     2.8612303290E-02     2.8608210556E-02
     2.8604118993E-02     2.8600028600E-02     2.8595939377E-02     2.8591851322E-02
     2.8587764437E-02     2.8583678719E-02     2.8579594170E-02     2.8575510787E-02
     2.8571428571E-02     2.8567347522E-02     2.8563267638E-02     2.8559188919E-02
     2.8555111365E-02     2.8551034975E-02     2.8546959749E-02     2.8542885686E-02
     2.8538812785E-02     2.8534741047E-02     2.8530670471E-02     2.8526601055E-02
     2.8522532801E-02     2.8518465707E-02     2.8514399772E-02     2.8510334996E-02
     2.8506271380E-02     2.8502208921E-02     2.8498147620E-02     2.8494087477E-02
     2.8490028490E-02     2.8485970659E-02     2.8481913985E-02     2.8477858465E-02
     2.8473804100E-02     2.8469750890E-02     2.8465698833E-02     2.8461647929E-02
     2.8457598179E-02     2.8453549580E-02     2.8449502134E-02     2.8445455838E-02
     2.8441410694E-02     2.8437366700E-02     2.8433323856E-02     2.8429282161E-02
     2.8425241615E-02     2.8421202217E-02     2.8417163967E-02     2.8413126865E-02
     2.8409090909E-02     2.8405056100E-02     2.8401022437E-02     2.8396989919E-02
     2.8392958546E-02     2.8388928318E-02     2.8384899234E-02     2.8380871293E-02
     2.8376844495E-02     2.8372818840E-02     2.8368794326E-02     2.8364770954E-02
     2.8360748724E-02     2.8356727634E-02     2.8352707684E-02     2.8348688873E-02
     2.8344671202E-02     2.8340654669E-02     2.8336639275E-02     2.8332625018E-02
     2.8328611898E-02     2.8324599915E-02     2.8320589068E-02     2.8316579357E-02
     2.8312570781E-02     2.8308563340E-02     2.8304557034E-02     2.8300551861E-02
     2.8296547821E-02     2.8292544914E-02     2.8288543140E-02     2.8284542498E-02
     2.8280542986E-02     2.8276544606E-02     2.8272547357E-02     2.8268551237E-02
     2.8264556246E-02     2.8260562385E-02     2.8256569652E-02     2.8252578048E-02
     2.8248587571E-02     2.8244598221E-02     2.8240609997E-02     2.8236622900E-02
     2.8232636928E-02     2.8228652082E-02     2.8224668360E-02     2.8220685763E-02
     2.8216704289E-02     2.8212723938E-02     2.8208744711E-02     2.8204766606E-02
     2.8200789622E-02     2.8196813760E-02     2.8192839019E-02     2.8188865398E-02
     2.8184892897E-02     2.8180921516E-02     2.8176951254E-02     2.8172982110E-02
     2.8169014085E-02     2.8165047176E-02     2.8161081386E-02     2.8157116711E-02
     2.8153153153E-02     2.8149190711E-02     2.8145229384E-02     2.8141269171E-02
     2.8137310073E-02     2.8133352089E-02     2.8129395218E-02     2.8125439460E-02
     2.8121484814E-02     2.8117531281E-02     2.8113578859E-02     2.8109627547E-02
     2.8105677347E-02     2.8101728256E-02     2.8097780275E-02     2.8093833404E-02
     2.8089887640E-02     2.8085942986E-02     2.8081999438E-02     2.8078056998E-02
     2.8074115665E-02     2.8070175439E-02     2.8066236318E-02     2.8062298302E-02
     2.8058361392E-02     2.8054425586E-02     2.8050490884E-02     2.8046557285E-02
     2.8042624790E-02     2.8038693397E-02     2.8034763106E-02     2.8030833917E-02
     2.8026905830E-02     2.8022978843E-02     2.8019052956E-02     2.8015128169E-02
     2.8011204482E-02     2.8007281893E-02     2.8003360403E-02     2.7999440011E-02
     2.7995520717E-02     2.7991602519E-02     2.7987685418E-02     2.7983769414E-02
     2.7979854505E-02     2.7975940691E-02     2.7972027972E-02     2.7968116347E-02
     2.7964205817E-02     2.7960296379E-02     2.7956388035E-02     2.7952480783E-02
     2.7948574623E-02     2.7944669554E-02     2.7940765577E-02     2.7936862690E-02
     2.7932960894E-02     2.7929060187E-02     2.7925160570E-02     2.7921262041E-02
     2.7917364601E-02     2.7913468248E-02     2.7909572984E-02     2.7905678806E-02
     2.7901785714E-02     2.7897893709E-02     2.7894002789E-02     2.7890112955E-02
     2.7886224205E-02     2.7882336540E-02     2.7878449958E-02     2.7874564460E-02
     2.7870680045E-02     2.7866796712E-02     2.7862914461E-02     2.7859033292E-02
     2.7855153203E-02     2.7851274196E-02     2.7847396268E-02     2.7843519421E-02
     2.7839643653E-02     2.7835768963E-02     2.7831895352E-02     2.7828022819E-02
     2.7824151363E-02     2.7820280985E-02     2.7816411683E-02     2.7812543457E-02
     2.7808676307E-02     2.7804810232E-02     2.7800945232E-02     2.7797081306E-02
     2.7793218455E-02     2.7789356676E-02     2.7785495971E-02     2.7781636338E-02
     2.7777777778E-02     2.7773920289E-02     2.7770063871E-02     2.7766208524E-02
     2.7762354248E-02     2.7758501041E-02     2.7754648904E-02     2.7750797835E-02
     2.7746947836E-02     2.7743098904E-02     2.7739251040E-02     2.7735404244E-02
     2.7731558514E-02     2.7727713850E-02     2.7723870252E-02     2.7720027720E-02
     2.7716186253E-02     2.7712345850E-02     2.7708506511E-02     2.7704668237E-02
     2.7700831025E-02     2.7696994876E-02     2.7693159790E-02     2.7689325765E-02
     2.7685492802E-02     2.7681660900E-02     2.7677830058E-02     2.7674000277E-02
     2.7670171555E-02     2.7666343893E-02     2.7662517289E-02     2.7658691744E-02
     2.7654867257E-02     2.7651043827E-02     2.7647221454E-02     2.7643400138E-02
     2.7639579878E-02     2.7635760674E-02     2.7631942526E-02     2.7628125432E-02
     2.7624309392E-02     2.7620494407E-02     2.7616680475E-02     2.7612867596E-02
     2.7609055770E-02     2.7605244997E-02     2.7601435275E-02     2.7597626604E-02
     2.7593818985E-02     2.7590012416E-02     2.7586206897E-02     2.7582402427E-02
     2.7578599007E-02     2.7574796636E-02     2.7570995313E-02     2.7567195038E-02
     2.7563395810E-02     2.7559597630E-02     2.7555800496E-02     2.7552004408E-02
     2.7548209366E-02     2.7544415370E-02     2.7540622418E-02     2.7536830511E-02
     2.7533039648E-02     2.7529249828E-02     2.7525461051E-02     2.7521673318E-02
     2.7517886626E-02     2.7514100977E-02     2.7510316369E-02     2.7506532802E-02
     2.7502750275E-02     2.7498968789E-02     2.7495188342E-02     2.7491408935E-02
     2.7487630566E-02     2.7483853236E-02     2.7480076944E-02     2.7476301690E-02
     2.7472527473E-02     2.7468754292E-02     2.7464982148E-02     2.7461211039E-02
     2.7457440967E-02     2.7453671929E-02     2.7449903925E-02     2.7446136956E-02
     2.7442371021E-02     2.7438606119E-02     2.7434842250E-02     2.7431079413E-02
     2.7427317608E-02     2.7423556835E-02     2.7419797094E-02     2.7416038382E-02
     2.7412280702E-02     2.7408524051E-02     2.7404768430E-02     2.7401013838E-02
     2.7397260274E-02     2.7393507739E-02     2.7389756231E-02     2.7386005751E-02
     2.7382256298E-02     2.7378507871E-02     2.7374760471E-02     2.7371014096E-02
     2.7367268747E-02     2.7363524422E-02     2.7359781122E-02     2.7356038846E-02
     2.7352297593E-02     2.7348557364E-02     2.7344818157E-02     2.7341079973E-02
     2.7337342810E-02     2.7333606669E-02     2.7329871550E-02     2.7326137450E-02
     2.7322404372E-02     2.7318672313E-02     2.7314941273E-02     2.7311211252E-02
     2.7307482250E-02     2.7303754266E-02     2.7300027300E-02     2.7296301351E-02
     2.7292576419E-02     2.7288852504E-02     2.7285129604E-02     2.7281407721E-02
     2.7277686852E-02     2.7273966998E-02     2.7270248159E-02     2.7266530334E-02
     2.7262813522E-02     2.7259097724E-02     2.7255382938E-02     2.7251669165E-02
     2.7247956403E-02     2.7244244653E-02     2.7240533914E-02     2.7236824186E-02
     2.7233115468E-02     2.7229407760E-02     2.7225701062E-02     2.7221995372E-02
     2.7218290691E-02     2.7214587019E-02     2.7210884354E-02     2.7207182696E-02
     2.7203482046E-02     2.7199782402E-02     2.7196083764E-02     2.7192386132E-02
     2.7188689505E-02     2.7184993883E-02     2.7181299266E-02     2.7177605653E-02
     2.7173913043E-02     2.7170221437E-02     2.7166530834E-02     2.7162841233E-02
     2.7159152634E-02     2.7155465037E-02     2.7151778441E-02     2.7148092846E-02
     2.7144408252E-02     2.7140724657E-02     2.7137042062E-02     2.7133360467E-02
     2.7129679870E-02     2.7126000271E-02     2.7122321671E-02     2.7118644068E-02
     2.7114967462E-02     2.7111291853E-02     2.7107617240E-02     2.7103943624E-02
     2.7100271003E-02     2.7096599377E-02     2.7092928746E-02     2.7089259109E-02
     2.7085590466E-02     2.7081922817E-02     2.7078256160E-02     2.7074590497E-02
     2.7070925826E-02     2.7067262146E-02     2.7063599459E-02     2.7059937762E-02
     2.7056277056E-02     2.7052617341E-02     2.7048958615E-02     2.7045300879E-02
     2.7041644132E-02     2.7037988374E-02     2.7034333604E-02     2.7030679822E-02
     2.7027027027E-02     2.7023375220E-02     2.7019724399E-02     2.7016074564E-02
     2.7012425716E-02     2.7008777853E-02     2.7005130975E-02     2.7001485082E-02
     2.6997840173E-02     2.6994196248E-02     2.6990553306E-02     2.6986911348E-02
     2.6983270372E-02     2.6979630379E-02     2.6975991368E-02     2.6972353338E-02
     2.6968716289E-02     2.6965080221E-02     2.6961445133E-02     2.6957811026E-02
     2.6954177898E-02     2.6950545749E-02     2.6946914578E-02     2.6943284386E-02
     2.6939655172E-02     2.6936026936E-02     2.6932399677E-02     2.6928773394E-02
     2.6925148088E-02     2.6921523758E-02     2.6917900404E-02     2.6914278024E-02
     2.6910656620E-02     2.6907036190E-02     2.6903416734E-02     2.6899798252E-02
     2.6896180742E-02     2.6892564206E-02     2.6888948642E-02     2.6885334050E-02
     2.6881720430E-02     2.6878107781E-02     2.6874496103E-02     2.6870885396E-02
     2.6867275658E-02     2.6863666891E-02     2.6860059092E-02     2.6856452263E-02
     2.6852846402E-02     2.6849241509E-02     2.6845637584E-02     2.6842034626E-02
     2.6838432636E-02     2.6834831611E-02     2.6831231554E-02     2.6827632461E-02
     2.6824034335E-02     2.6820437173E-02     2.6816840976E-02     2.6813245743E-02
     2.6809651475E-02     2.6806058169E-02     2.6802465827E-02     2.6798874447E-02
     2.6795284030E-02     2.6791694575E-02     2.6788106081E-02     2.6784518548E-02
     2.6780931976E-02     2.6777346365E-02     2.6773761714E-02     2.6770178022E-02
     2.6766595289E-02     2.6763013515E-02     2.6759432700E-02     2.6755852843E-02
     2.6752273943E-02     2.6748696001E-02     2.6745119016E-02     2.6741542987E-02
     2.6737967914E-02     2.6734393798E-02     2.6730820636E-02     2.6727248430E-02
     2.6723677178E-02     2.6720106880E-02     2.6716537537E-02     2.6712969147E-02
     2.6709401709E-02     2.6705835225E-02     2.6702269693E-02     2.6698705113E-02
     2.6695141484E-02     2.6691578807E-02     2.6688017080E-02     2.6684456304E-02
     2.6680896478E-02     2.6677337602E-02     2.6673779675E-02     2.6670222696E-02
     2.6666666667E-02     2.6663111585E-02     2.6659557451E-02     2.6656004265E-02
     2.6652452026E-02     2.6648900733E-02     2.6645350386E-02     2.6641800986E-02
     2.6638252531E-02     2.6634705021E-02     2.6631158455E-02     2.6627612835E-02
     2.6624068158E-02     2.6620524424E-02     2.6616981634E-02     2.6613439787E-02
     2.6609898882E-02     2.6606358920E-02     2.6602819899E-02     2.6599281819E-02
     2.6595744681E-02     2.6592208483E-02     2.6588673225E-02     2.6585138907E-02
     2.6581605529E-02     2.6578073090E-02     2.6574541589E-02     2.6571011027E-02
     2.6567481403E-02     2.6563952716E-02     2.6560424967E-02     2.6556898154E-02
     2.6553372278E-02     2.6549847338E-02     2.6546323334E-02     2.6542800265E-02
     2.6539278132E-02     2.6535756932E-02     2.6532236668E-02     2.6528717337E-02
     2.6525198939E-02     2.6521681475E-02     2.6518164943E-02     2.6514649344E-02
     2.6511134677E-02     2.6507620941E-02     2.6504108137E-02     2.6500596263E-02
     2.6497085321E-02     2.6493575308E-02     2.6490066225E-02     2.6486558072E-02
     2.6483050847E-02     2.6479544552E-02     2.6476039185E-02     2.6472534745E-02
     2.6469031233E-02     2.6465528649E-02     2.6462026991E-02     2.6458526260E-02
     2.6455026455E-02     2.6451527576E-02     2.6448029622E-02     2.6444532593E-02
     2.6441036489E-02     2.6437541309E-02     2.6434047053E-02     2.6430553720E-02
     2.6427061311E-02     2.6423569824E-02     2.6420079260E-02     2.6416589618E-02
     2.6413100898E-02     2.6409613099E-02     2.6406126221E-02     2.6402640264E-02
     2.6399155227E-02     2.6395671110E-02     2.6392187912E-02     2.6388705634E-02
     2.6385224274E-02     2.6381743833E-02     2.6378264310E-02     2.6374785705E-02
     2.6371308017E-02     2.6367831246E-02     2.6364355392E-02     2.6360880453E-02
     2.6357406431E-02     2.6353933325E-02     2.6350461133E-02     2.6346989856E-02
     2.6343519494E-02     2.6340050046E-02     2.6336581512E-02     2.6333113891E-02
     2.6329647183E-02     2.6326181387E-02     2.6322716504E-02     2.6319252533E-02
     2.6315789474E-02     2.6312327325E-02     2.6308866088E-02     2.6305405761E-02
     2.6301946344E-02     2.6298487837E-02     2.6295030239E-02     2.6291573551E-02
     2.6288117771E-02     2.6284662899E-02     2.6281208936E-02     2.6277755880E-02
     2.6274303731E-02     2.6270852489E-02     2.6267402154E-02     2.6263952725E-02
     2.6260504202E-02     2.6257056584E-02     2.6253609871E-02     2.6250164064E-02
     2.6246719160E-02     2.6243275161E-02     2.6239832065E-02     2.6236389873E-02
     2.6232948583E-02     2.6229508197E-02     2.6226068712E-02     2.6222630130E-02
     2.6219192449E-02     2.6215755669E-02     2.6212319790E-02     2.6208884812E-02
     2.6205450734E-02     2.6202017555E-02     2.6198585276E-02     2.6195153897E-02
     2.6191723415E-02     2.6188293833E-02     2.6184865148E-02     2.6181437361E-02
     2.6178010471E-02     2.6174584478E-02     2.6171159382E-02     2.6167735183E-02
     2.6164311879E-02     2.6160889470E-02     2.6157467957E-02     2.6154047339E-02
     2.6150627615E-02     2.6147208785E-02     2.6143790850E-02     2.6140373807E-02
     2.6136957658E-02     2.6133542402E-02     2.6130128038E-02     2.6126714566E-02
     2.6123301985E-02     2.6119890296E-02     2.6116479499E-02     2.6113069591E-02
     2.6109660574E-02     2.6106252447E-02     2.6102845210E-02     2.6099438862E-02
     2.6096033403E-02     2.6092628832E-02     2.6089225150E-02     2.6085822356E-02
     2.6082420449E-02     2.6079019429E-02     2.6075619296E-02     2.6072220050E-02
     2.6068821689E-02     2.6065424215E-02     2.6062027626E-02     2.6058631922E-02
     2.6055237103E-02     2.6051843168E-02     2.6048450117E-02     2.6045057950E-02
     2.6041666667E-02     2.6038276266E-02     2.6034886748E-02     2.6031498113E-02
     2.6028110359E-02     2.6024723487E-02     2.6021337497E-02     2.6017952387E-02
     2.6014568158E-02     2.6011184809E-02     2.6007802341E-02     2.6004420752E-02
     2.6001040042E-02     2.5997660211E-02     2.5994281258E-02     2.5990903184E-02
     2.5987525988E-02     2.5984149669E-02     2.5980774227E-02     2.5977399662E-02
     2.5974025974E-02     2.5970653162E-02     2.5967281226E-02     2.5963910165E-02
     2.5960539979E-02     2.5957170668E-02     2.5953802232E-02     2.5950434670E-02
     2.5947067981E-02     2.5943702166E-02     2.5940337224E-02     2.5936973155E-02
     2.5933609959E-02     2.5930247634E-02     2.5926886181E-02     2.5923525599E-02
     2.5920165889E-02     2.5916807049E-02     2.5913449080E-02     2.5910091981E-02
     2.5906735751E-02     2.5903380391E-02     2.5900025900E-02     2.5896672278E-02
     2.5893319524E-02     2.5889967638E-02     2.5886616619E-02     2.5883266468E-02
     2.5879917184E-02     2.5876568767E-02     2.5873221216E-02     2.5869874531E-02
     2.5866528712E-02     2.5863183758E-02     2.5859839669E-02     2.5856496445E-02
     2.5853154085E-02     2.5849812589E-02     2.5846471957E-02     2.5843132188E-02
     2.5839793282E-02     2.5836455238E-02     2.5833118057E-02     2.5829781738E-02
     2.5826446281E-02     2.5823111685E-02     2.5819777950E-02     2.5816445076E-02
     2.5813113061E-02     2.5809781907E-02     2.5806451613E-02     2.5803122178E-02
     2.5799793602E-02     2.5796465884E-02     2.5793139025E-02     2.5789813024E-02
     2.5786487880E-02     2.5783163594E-02     2.5779840165E-02     2.5776517592E-02
     2.5773195876E-02     2.5769875016E-02     2.5766555012E-02     2.5763235862E-02
     2.5759917568E-02     2.5756600129E-02     2.5753283544E-02     2.5749967813E-02
     2.5746652935E-02     2.5743338911E-02     2.5740025740E-02     2.5736713422E-02
     2.5733401956E-02     2.5730091342E-02     2.5726781580E-02     2.5723472669E-02
     2.5720164609E-02     2.5716857400E-02     2.5713551041E-02     2.5710245533E-02
     2.5706940874E-02     2.5703637065E-02     2.5700334104E-02     2.5697031993E-02
     2.5693730730E-02     2.5690430315E-02     2.5687130747E-02     2.5683832028E-02
     2.5680534155E-02     2.5677237129E-02     2.5673940950E-02     2.5670645617E-02
     2.5667351129E-02     2.5664057487E-02     2.5660764691E-02     2.5657472739E-02
     2.5654181632E-02     2.5650891368E-02     2.5647601949E-02     2.5644313374E-02
     2.5641025641E-02     2.5637738751E-02     2.5634452704E-02     2.5631167500E-02
     2.5627883137E-02     2.5624599616E-02     2.5621316936E-02     2.5618035097E-02
     2.5614754098E-02     2.5611473940E-02     2.5608194622E-02     2.5604916144E-02
     2.5601638505E-02     2.5598361705E-02     2.5595085744E-02     2.5591810621E-02
     2.5588536336E-02     2.5585262889E-02     2.5581990279E-02     2.5578718506E-02
     2.5575447570E-02     2.5572177471E-02     2.5568908208E-02     2.5565639780E-02
     2.5562372188E-02     2.5559105431E-02     2.5555839509E-02     2.5552574422E-02
     2.5549310169E-02     2.5546046749E-02     2.5542784163E-02     2.5539522411E-02
     2.5536261491E-02     2.5533001404E-02     2.5529742150E-02     2.5526483727E-02
     2.5523226136E-02     2.5519969376E-02     2.5516713447E-02     2.5513458349E-02
     2.5510204082E-02     2.5506950644E-02     2.5503698036E-02     2.5500446258E-02
     2.5497195309E-02     2.5493945188E-02     2.5490695896E-02     2.5487447432E-02
     2.5484199796E-02     2.5480952988E-02     2.5477707006E-02     2.5474461852E-02
     2.5471217524E-02     2.5467974023E-02     2.5464731347E-02     2.5461489497E-02
     2.5458248473E-02     2.5455008273E-02     2.5451768898E-02     2.5448530347E-02
     2.5445292621E-02     2.5442055718E-02     2.5438819639E-02     2.5435584383E-02
     2.5432349949E-02     2.5429116338E-02     2.5425883549E-02     2.5422651583E-02
     2.5419420437E-02     2.5416190113E-02     2.5412960610E-02     2.5409731927E-02
     2.5406504065E-02     2.5403277023E-02     2.5400050800E-02     2.5396825397E-02
     2.5393600813E-02     2.5390377047E-02     2.5387154100E-02     2.5383931971E-02
     2.5380710660E-02     2.5377490166E-02     2.5374270490E-02     2.5371051630E-02
     2.5367833587E-02     2.5364616360E-02     2.5361399949E-02     2.5358184354E-02
     2.5354969574E-02     2.5351755609E-02     2.5348542459E-02     2.5345330123E-02
     2.5342118601E-02     2.5338907893E-02     2.5335697998E-02     2.5332488917E-02
     2.5329280648E-02     2.5326073192E-02     2.5322866548E-02     2.5319660717E-02
     2.5316455696E-02     2.5313251487E-02     2.5310048089E-02     2.5306845502E-02
     2.5303643725E-02     2.5300442758E-02     2.5297242601E-02     2.5294043253E-02
     2.5290844714E-02     2.5287646984E-02     2.5284450063E-02     2.5281253950E-02
     2.5278058645E-02     2.5274864148E-02     2.5271670457E-02     2.5268477574E-02
     2.5265285498E-02     2.5262094228E-02     2.5258903764E-02     2.5255714105E-02
     2.5252525253E-02     2.5249337205E-02     2.5246149962E-02     2.5242963524E-02
     2.5239777890E-02     2.5236593060E-02     2.5233409034E-02     2.5230225811E-02
     2.5227043391E-02     2.5223861773E-02     2.5220680958E-02     2.5217500946E-02
     2.5214321735E-02     2.5211143325E-02     2.5207965717E-02     2.5204788910E-02
     2.5201612903E-02     2.5198437697E-02     2.5195263291E-02     2.5192089684E-02
     2.5188916877E-02     2.5185744868E-02     2.5182573659E-02     2.5179403248E-02
     2.5176233635E-02     2.5173064821E-02     2.5169896803E-02     2.5166729583E-02
     2.5163563161E-02     2.5160397534E-02     2.5157232704E-02     2.5154068671E-02
     2.5150905433E-02     2.5147742990E-02     2.5144581343E-02     2.5141420490E-02
     2.5138260432E-02     2.5135101169E-02     2.5131942699E-02     2.5128785023E-02
     2.5125628141E-02     2.5122472051E-02     2.5119316755E-02     2.5116162250E-02
     2.5113008538E-02     2.5109855618E-02     2.5106703490E-02     2.5103552153E-02
     2.5100401606E-02     2.5097251851E-02     2.5094102886E-02     2.5090954711E-02
     2.5087807326E-02     2.5084660730E-02     2.5081514924E-02     2.5078369906E-02
     2.5075225677E-02     2.5072082236E-02     2.5068939584E-02     2.5065797719E-02
     2.5062656642E-02     2.5059516351E-02     2.5056376848E-02     2.5053238131E-02
     2.5050100200E-02     2.5046963056E-02     2.5043826697E-02     2.5040691123E-02
     2.5037556335E-02     2.5034422331E-02     2.5031289111E-02     2.5028156676E-02
     2.5025025025E-02     2.5021894157E-02     2.5018764073E-02     2.5015634772E-02
     2.5012506253E-02     2.5009378517E-02     2.5006251563E-02     2.5003125391E-02
     2.5000000000E-02     2.4996875391E-02     2.4993751562E-02     2.4990628514E-02
     2.4987506247E-02     2.4984384760E-02     2.4981264052E-02     2.4978144124E-02
     2.4975024975E-02     2.4971906605E-02     2.4968789014E-02     2.4965672201E-02
     2.4962556166E-02     2.4959440909E-02     2.4956326429E-02     2.4953212726E-02
     2.4950099800E-02     2.4946987651E-02     2.4943876278E-02     2.4940765682E-02
     2.4937655860E-02     2.4934546815E-02     2.4931438544E-02     2.4928331048E-02
     2.4925224327E-02     2.4922118380E-02     2.4919013207E-02     2.4915908808E-02
     2.4912805182E-02     2.4909702329E-02     2.4906600249E-02     2.4903498942E-02
     2.4900398406E-02     2.4897298643E-02     2.4894199651E-02     2.4891101431E-02
     2.4888003982E-02     2.4884907304E-02     2.4881811396E-02     2.4878716258E-02
     2.4875621891E-02     2.4872528293E-02     2.4869435464E-02     2.4866343404E-02
     2.4863252113E-02     2.4860161591E-02     2.4857071837E-02     2.4853982851E-02
     2.4850894632E-02     2.4847807181E-02     2.4844720497E-02     2.4841634580E-02
     2.4838549429E-02     2.4835465044E-02     2.4832381425E-02     2.4829298572E-02
     2.4826216485E-02     2.4823135162E-02     2.4820054604E-02     2.4816974811E-02
     2.4813895782E-02     2.4810817516E-02     2.4807740015E-02     2.4804663277E-02
     2.4801587302E-02     2.4798512089E-02     2.4795437639E-02     2.4792363952E-02
     2.4789291026E-02     2.4786218862E-02     2.4783147460E-02     2.4780076818E-02
     2.4777006938E-02     2.4773937817E-02     2.4770869458E-02     2.4767801858E-02
     2.4764735017E-02     2.4761668936E-02     2.4758603615E-02     2.4755539052E-02
     2.4752475248E-02     2.4749412201E-02     2.4746349913E-02     2.4743288383E-02
     2.4740227610E-02     2.4737167594E-02     2.4734108335E-02     2.4731049833E-02
     2.4727992087E-02     2.4724935097E-02     2.4721878863E-02     2.4718823384E-02
     2.4715768660E-02     2.4712714692E-02     2.4709661478E-02     2.4706609018E-02
     2.4703557312E-02     2.4700506360E-02     2.4697456162E-02     2.4694406717E-02
     2.4691358025E-02     2.4688310085E-02     2.4685262898E-02     2.4682216463E-02
     2.4679170780E-02     2.4676125848E-02     2.4673081668E-02     2.4670038239E-02
     2.4666995560E-02     2.4663953632E-02     2.4660912454E-02     2.4657872026E-02
     2.4654832347E-02     2.4651793418E-02     2.4648755238E-02     2.4645717807E-02
     2.4642681124E-02     2.4639645189E-02     2.4636610002E-02     2.4633575563E-02
     2.4630541872E-02     2.4627508927E-02     2.4624476730E-02     2.4621445279E-02
     2.4618414574E-02     2.4615384615E-02     2.4612355402E-02     2.4609326935E-02
     2.4606299213E-02     2.4603272235E-02     2.4600246002E-02     2.4597220514E-02
     2.4594195770E-02     2.4591171769E-02     2.4588148512E-02     2.4585125999E-02
     2.4582104228E-02     2.4579083200E-02     2.4576062915E-02     2.4573043371E-02
     2.4570024570E-02     2.4567006510E-02     2.4563989192E-02     2.4560972615E-02
     2.4557956778E-02     2.4554941682E-02     2.4551927326E-02     2.4548913711E-02
     2.4545900835E-02     2.4542888698E-02     2.4539877301E-02     2.4536866642E-02
     2.4533856722E-02     2.4530847541E-02     2.4527839097E-02     2.4524831392E-02
     2.4521824424E-02     2.4518818193E-02     2.4515812699E-02     2.4512807942E-02
     2.4509803922E-02     2.4506800637E-02     2.4503798089E-02     2.4500796276E-02
     2.4497795198E-02     2.4494794856E-02     2.4491795249E-02     2.4488796376E-02
     2.4485798237E-02     2.4482800832E-02     2.4479804162E-02     2.4476808224E-02
     2.4473813020E-02     2.4470818549E-02     2.4467824810E-02     2.4464831804E-02
     2.4461839530E-02     2.4458847988E-02     2.4455857178E-02     2.4452867099E-02
     2.4449877751E-02     2.4446889133E-02     2.4443901247E-02     2.4440914090E-02
     2.4437927664E-02     2.4434941967E-02     2.4431957000E-02     2.4428972762E-02
     2.4425989253E-02     2.4423006472E-02     2.4420024420E-02     2.4417043096E-02
     2.4414062500E-02     2.4411082632E-02     2.4408103490E-02     2.4405125076E-02
     2.4402147389E-02     2.4399170428E-02     2.4396194194E-02     2.4393218685E-02
     2.4390243902E-02     2.4387269845E-02     2.4384296513E-02     2.4381323906E-02
     2.4378352023E-02     2.4375380865E-02     2.4372410431E-02     2.4369440721E-02
     2.4366471735E-02     2.4363503472E-02     2.4360535932E-02     2.4357569115E-02
     2.4354603020E-02     2.4351637648E-02     2.4348672997E-02     2.4345709069E-02
     2.4342745862E-02     2.4339783376E-02     2.4336821611E-02     2.4333860567E-02
     2.4330900243E-02     2.4327940640E-02     2.4324981756E-02     2.4322023592E-02
     2.4319066148E-02     2.4316109422E-02     2.4313153416E-02     2.4310198128E-02
     2.4307243559E-02     2.4304289707E-02     2.4301336574E-02     2.4298384157E-02
     2.4295432459E-02     2.4292481477E-02     2.4289531212E-02     2.4286581664E-02
     2.4283632831E-02     2.4280684715E-02     2.4277737315E-02     2.4274790630E-02
     2.4271844660E-02     2.4268899405E-02     2.4265954865E-02     2.4263011040E-02
     2.4260067928E-02     2.4257125531E-02     2.4254183847E-02     2.4251242876E-02
     2.4248302619E-02     2.4245363074E-02     2.4242424242E-02     2.4239486123E-02
     2.4236548715E-02     2.4233612020E-02     2.4230676036E-02     2.4227740763E-02
     2.4224806202E-02     2.4221872351E-02     2.4218939210E-02     2.4216006780E-02
     2.4213075061E-02     2.4210144050E-02     2.4207213750E-02     2.4204284158E-02
     2.4201355276E-02     2.4198427102E-02     2.4195499637E-02     2.4192572880E-02
     2.4189646831E-02     2.4186721490E-02     2.4183796856E-02     2.4180872930E-02
     2.4177949710E-02     2.4175027197E-02     2.4172105390E-02     2.4169184290E-02
     2.4166263896E-02     2.4163344207E-02     2.4160425223E-02     2.4157506945E-02
     2.4154589372E-02     2.4151672503E-02     2.4148756339E-02     2.4145840879E-02
     2.4142926123E-02     2.4140012070E-02     2.4137098721E-02     2.4134186075E-02
     2.4131274131E-02     2.4128362891E-02     2.4125452352E-02     2.4122542516E-02
     2.4119633382E-02     2.4116724949E-02     2.4113817217E-02     2.4110910187E-02
     2.4108003857E-02     2.4105098228E-02     2.4102193300E-02     2.4099289071E-02
     2.4096385542E-02     2.4093482713E-02     2.4090580583E-02     2.4087679152E-02
     2.4084778420E-02     2.4081878387E-02     2.4078979051E-02     2.4076080414E-02
     2.4073182475E-02     2.4070285233E-02     2.4067388688E-02     2.4064492841E-02
     2.4061597690E-02     2.4058703236E-02     2.4055809478E-02     2.4052916416E-02
     2.4050024050E-02     2.4047132379E-02     2.4044241404E-02     2.4041351124E-02
     2.4038461538E-02     2.4035572648E-02     2.4032684451E-02     2.4029796948E-02
     2.4026910139E-02     2.4024024024E-02     2.4021138602E-02     2.4018253873E-02
     2.4015369837E-02     2.4012486493E-02     2.4009603842E-02     2.4006721882E-02
     2.4003840614E-02     2.4000960038E-02     2.3998080154E-02     2.3995200960E-02
     2.3992322457E-02     2.3989444644E-02     2.3986567522E-02     2.3983691090E-02
     2.3980815348E-02     2.3977940295E-02     2.3975065931E-02     2.3972192257E-02
     2.3969319271E-02     2.3966446974E-02     2.3963575365E-02     2.3960704445E-02
     2.3957834212E-02     2.3954964666E-02     2.3952095808E-02     2.3949227637E-02
     2.3946360153E-02     2.3943493356E-02     2.3940627244E-02     2.3937761819E-02
     2.3934897080E-02     2.3932033026E-02     2.3929169658E-02     2.3926306975E-02
     2.3923444976E-02     2.3920583662E-02     2.3917723033E-02     2.3914863087E-02
     2.3912003826E-02     2.3909145248E-02     2.3906287354E-02     2.3903430142E-02
     2.3900573614E-02     2.3897717768E-02     2.3894862605E-02     2.3892008123E-02
     2.3889154324E-02     2.3886301206E-02     2.3883448770E-02     2.3880597015E-02
     2.3877745941E-02     2.3874895547E-02     2.3872045834E-02     2.3869196802E-02
     2.3866348449E-02     2.3863500776E-02     2.3860653782E-02     2.3857807467E-02
     2.3854961832E-02     2.3852116875E-02     2.3849272597E-02     2.3846428997E-02
     2.3843586075E-02     2.3840743831E-02     2.3837902265E-02     2.3835061375E-02
     2.3832221163E-02     2.3829381628E-02     2.3826542769E-02     2.3823704586E-02
     2.3820867080E-02     2.3818030249E-02     2.3815194094E-02     2.3812358614E-02
     2.3809523810E-02     2.3806689680E-02     2.3803856225E-02     2.3801023444E-02
     2.3798191337E-02     2.3795359905E-02     2.3792529146E-02     2.3789699060E-02
     2.3786869648E-02     2.3784040909E-02     2.3781212842E-02     2.3778385448E-02
     2.3775558726E-02     2.3772732676E-02     2.3769907297E-02     2.3767082591E-02
     2.3764258555E-02     2.3761435191E-02     2.3758612497E-02     2.3755790474E-02
     2.3752969121E-02     2.3750148438E-02     2.3747328426E-02     2.3744509082E-02
     2.3741690408E-02     2.3738872404E-02     2.3736055068E-02     2.3733238400E-02
     2.3730422402E-02     2.3727607071E-02     2.3724792408E-02     2.3721978413E-02
     2.3719165085E-02     2.3716352425E-02     2.3713540432E-02     2.3710729105E-02
     2.3707918445E-02     2.3705108451E-02     2.3702299123E-02     2.3699490461E-02
     2.3696682464E-02     2.3693875133E-02     2.3691068467E-02     2.3688262466E-02
     2.3685457129E-02     2.3682652457E-02     2.3679848449E-02     2.3677045105E-02
     2.3674242424E-02     2.3671440407E-02     2.3668639053E-02     2.3665838362E-02
     2.3663038334E-02     2.3660238968E-02     2.3657440265E-02     2.3654642224E-02
     2.3651844844E-02     2.3649048126E-02     2.3646252069E-02     2.3643456673E-02
     2.3640661939E-02     2.3637867864E-02     2.3635074450E-02     2.3632281697E-02
     2.3629489603E-02     2.3626698169E-02     2.3623907394E-02     2.3621117279E-02
     2.3618327822E-02     2.3615539025E-02     2.3612750885E-02     2.3609963405E-02
     2.3607176582E-02     2.3604390417E-02     2.3601604909E-02     2.3598820059E-02
     2.3596035866E-02     2.3593252330E-02     2.3590469450E-02     2.3587687227E-02
     2.3584905660E-02     2.3582124749E-02     2.3579344494E-02     2.3576564894E-02
     2.3573785950E-02     2.3571007661E-02     2.3568230026E-02     2.3565453046E-02
     2.3562676720E-02     2.3559901048E-02     2.3557126031E-02     2.3554351666E-02
     2.3551577956E-02     2.3548804898E-02     2.3546032494E-02     2.3543260742E-02
     2.3540489642E-02     2.3537719195E-02     2.3534949400E-02     2.3532180257E-02
     2.3529411765E-02     2.3526643924E-02     2.3523876735E-02     2.3521110196E-02
     2.3518344309E-02     2.3515579071E-02     2.3512814484E-02     2.3510050547E-02
     2.3507287259E-02     2.3504524621E-02     2.3501762632E-02     2.3499001292E-02
     2.3496240602E-02     2.3493480559E-02     2.3490721165E-02     2.3487962419E-02
     2.3485204321E-02     2.3482446871E-02     2.3479690068E-02     2.3476933912E-02
     2.3474178404E-02     2.3471423542E-02     2.3468669326E-02     2.3465915757E-02
     2.3463162834E-02     2.3460410557E-02     2.3457658926E-02     2.3454907939E-02
     2.3452157598E-02     2.3449407902E-02     2.3446658851E-02     2.3443910444E-02
     2.3441162682E-02     2.3438415563E-02     2.3435669088E-02     2.3432923257E-02
     2.3430178069E-02     2.3427433525E-02     2.3424689623E-02     2.3421946364E-02
     2.3419203747E-02     2.3416461773E-02     2.3413720440E-02     2.3410979750E-02
     2.3408239700E-02     2.3405500293E-02     2.3402761526E-02     2.3400023400E-02
     2.3397285915E-02     2.3394549070E-02     2.3391812865E-02     2.3389077301E-02
     2.3386342376E-02     2.3383608091E-02     2.3380874445E-02     2.3378141438E-02
     2.3375409070E-02     2.3372677340E-02     2.3369946249E-02     2.3367215796E-02
     2.3364485981E-02     2.3361756804E-02     2.3359028264E-02     2.3356300362E-02
     2.3353573097E-02     2.3350846468E-02     2.3348120476E-02     2.3345395121E-02
     2.3342670401E-02     2.3339946318E-02     2.3337222870E-02     2.3334500058E-02
     2.3331777881E-02     2.3329056340E-02     2.3326335433E-02     2.3323615160E-02
     2.3320895522E-02     2.3318176519E-02     2.3315458149E-02     2.3312740413E-02
     2.3310023310E-02     2.3307306841E-02     2.3304591004E-02     2.3301875801E-02
     2.3299161230E-02     2.3296447292E-02     2.3293733986E-02     2.3291021311E-02
     2.3288309269E-02     2.3285597858E-02     2.3282887078E-02     2.3280176929E-02
     2.3277467412E-02     2.3274758524E-02     2.3272050268E-02     2.3269342641E-02
     2.3266635644E-02     2.3263929278E-02     2.3261223540E-02     2.3258518432E-02
     2.3255813953E-02     2.3253110103E-02     2.3250406882E-02     2.3247704289E-02
     2.3245002325E-02     2.3242300988E-02     2.3239600279E-02     2.3236900198E-02
     2.3234200743E-02     2.3231501917E-02     2.3228803717E-02     2.3226106143E-02
     2.3223409196E-02     2.3220712876E-02     2.3218017181E-02     2.3215322113E-02
     2.3212627669E-02     2.3209933852E-02     2.3207240659E-02     2.3204548091E-02
     2.3201856148E-02     2.3199164830E-02     2.3196474136E-02     2.3193784066E-02
     2.3191094620E-02     2.3188405797E-02     2.3185717598E-02     2.3183030022E-02
     2.3180343069E-02     2.3177656739E-02     2.3174971031E-02     2.3172285946E-02
     2.3169601483E-02     2.3166917642E-02     2.3164234422E-02     2.3161551824E-02
     2.3158869847E-02     2.3156188491E-02     2.3153507756E-02     2.3150827642E-02
     2.3148148148E-02     2.3145469274E-02     2.3142791021E-02     2.3140113387E-02
     2.3137436372E-02     2.3134759977E-02     2.3132084201E-02     2.3129409044E-02
     2.3126734505E-02     2.3124060585E-02     2.3121387283E-02     2.3118714599E-02
     2.3116042534E-02     2.3113371085E-02     2.3110700254E-02     2.3108030040E-02
     2.3105360444E-02     2.3102691464E-02     2.3100023100E-02     2.3097355353E-02
     2.3094688222E-02     2.3092021707E-02     2.3089355807E-02     2.3086690523E-02
     2.3084025854E-02     2.3081361800E-02     2.3078698361E-02     2.3076035537E-02
     2.3073373327E-02     2.3070711731E-02     2.3068050750E-02     2.3065390382E-02
     2.3062730627E-02     2.3060071486E-02     2.3057412958E-02     2.3054755043E-02
     2.3052097741E-02     2.3049441051E-02     2.3046784973E-02     2.3044129508E-02
     2.3041474654E-02     2.3038820412E-02     2.3036166782E-02     2.3033513763E-02
     2.3030861354E-02     2.3028209557E-02     2.3025558370E-02     2.3022907793E-02
     2.3020257827E-02     2.3017608470E-02     2.3014959724E-02     2.3012311587E-02
     2.3009664059E-02     2.3007017140E-02     2.3004370830E-02     2.3001725129E-02
     2.2999080037E-02     2.2996435552E-02     2.2993791676E-02     2.2991148408E-02
     2.2988505747E-02     2.2985863694E-02     2.2983222248E-02     2.2980581409E-02
     2.2977941176E-02     2.2975301551E-02     2.2972662532E-02     2.2970024119E-02
     2.2967386311E-02     2.2964749110E-02     2.2962112514E-02     2.2959476524E-02
     2.2956841139E-02     2.2954206358E-02     2.2951572183E-02     2.2948938612E-02
     2.2946305645E-02     2.2943673282E-02     2.2941041523E-02     2.2938410368E-02
     2.2935779817E-02     2.2933149868E-02     2.2930520523E-02     2.2927891780E-02
     2.2925263641E-02     2.2922636103E-02     2.2920009168E-02     2.2917382835E-02
     2.2914757104E-02     2.2912131974E-02     2.2909507446E-02     2.2906883518E-02
     2.2904260192E-02     2.2901637467E-02     2.2899015342E-02     2.2896393818E-02
     2.2893772894E-02     2.2891152570E-02     2.2888532845E-02     2.2885913720E-02
     2.2883295195E-02     2.2880677268E-02     2.2878059941E-02     2.2875443212E-02
     2.2872827081E-02     2.2870211549E-02     2.2867596616E-02     2.2864982280E-02
     2.2862368541E-02     2.2859755401E-02     2.2857142857E-02     2.2854530911E-02
     2.2851919561E-02     2.2849308808E-02     2.2846698652E-02     2.2844089092E-02
     2.2841480128E-02     2.2838871760E-02     2.2836263987E-02     2.2833656810E-02
     2.2831050228E-02     2.2828444242E-02     2.2825838850E-02     2.2823234052E-02
     2.2820629849E-02     2.2818026241E-02     2.2815423226E-02     2.2812820805E-02
     2.2810218978E-02     2.2807617744E-02     2.2805017104E-02     2.2802417056E-02
     2.2799817601E-02     2.2797218739E-02     2.2794620470E-02     2.2792022792E-02
     2.2789425706E-02     2.2786829213E-02     2.2784233311E-02     2.2781638000E-02
     2.2779043280E-02     2.2776449152E-02     2.2773855614E-02     2.2771262667E-02
     2.2768670310E-02     2.2766078543E-02     2.2763487366E-02     2.2760896779E-02
     2.2758306782E-02     2.2755717374E-02     2.2753128555E-02     2.2750540325E-02
     2.2747952684E-02     2.2745365632E-02     2.2742779168E-02     2.2740193292E-02
     2.2737608004E-02     2.2735023303E-02     2.2732439191E-02     2.2729855665E-02
     2.2727272727E-02     2.2724690376E-02     2.2722108612E-02     2.2719527434E-02
     2.2716946842E-02     2.2714366837E-02     2.2711787418E-02     2.2709208584E-02
     2.2706630336E-02     2.2704052673E-02     2.2701475596E-02     2.2698899103E-02
     2.2696323196E-02     2.2693747872E-02     2.2691173134E-02     2.2688598979E-02
     2.2686025408E-02     2.2683452421E-02     2.2680880018E-02     2.2678308198E-02
     2.2675736961E-02     2.2673166308E-02     2.2670596237E-02     2.2668026748E-02
     2.2665457842E-02     2.2662889518E-02     2.2660321777E-02     2.2657754617E-02
     2.2655188038E-02     2.2652622041E-02     2.2650056625E-02     2.2647491790E-02
     2.2644927536E-02     2.2642363863E-02     2.2639800770E-02     2.2637238257E-02
     2.2634676324E-02     2.2632114971E-02     2.2629554198E-02     2.2626994004E-02
     2.2624434389E-02     2.2621875353E-02     2.2619316897E-02     2.2616759018E-02
     2.2614201719E-02     2.2611644997E-02     2.2609088854E-02     2.2606533288E-02
     2.2603978300E-02     2.2601423890E-02     2.2598870056E-02     2.2596316800E-02
     2.2593764121E-02     2.2591212019E-02     2.2588660492E-02     2.2586109543E-02
     2.2583559169E-02     2.2581009371E-02     2.2578460149E-02     2.2575911502E-02
     2.2573363431E-02     2.2570815935E-02     2.2568269014E-02     2.2565722667E-02
     2.2563176895E-02     2.2560631698E-02     2.2558087074E-02     2.2555543025E-02
     2.2552999549E-02     2.2550456647E-02     2.2547914318E-02     2.2545372562E-02
     2.2542831380E-02     2.2540290770E-02     2.2537750732E-02     2.2535211268E-02
     2.2532672375E-02     2.2530134054E-02     2.2527596305E-02     2.2525059128E-02
     2.2522522523E-02     2.2519986488E-02     2.2517451025E-02     2.2514916132E-02
     2.2512381810E-02     2.2509848059E-02     2.2507314877E-02     2.2504782266E-02
     2.2502250225E-02     2.2499718754E-02     2.2497187852E-02     2.2494657519E-02
     2.2492127755E-02     2.2489598561E-02     2.2487069935E-02     2.2484541877E-02
     2.2482014388E-02     2.2479487468E-02     2.2476961115E-02     2.2474435330E-02
     2.2471910112E-02     2.2469385462E-02     2.2466861379E-02     2.2464337864E-02
     2.2461814915E-02     2.2459292532E-02     2.2456770716E-02     2.2454249467E-02
     2.2451728783E-02     2.2449208665E-02     2.2446689113E-02     2.2444170127E-02
     2.2441651706E-02     2.2439133849E-02     2.2436616558E-02     2.2434099832E-02
     2.2431583670E-02     2.2429068072E-02     2.2426553039E-02     2.2424038569E-02
     2.2421524664E-02     2.2419011322E-02     2.2416498543E-02     2.2413986327E-02
     2.2411474675E-02     2.2408963585E-02     2.2406453058E-02     2.2403943094E-02
     2.2401433692E-02     2.2398924852E-02     2.2396416573E-02     2.2393908857E-02
     2.2391401702E-02     2.2388895108E-02     2.2386389075E-02     2.2383883604E-02
     2.2381378693E-02     2.2378874343E-02     2.2376370553E-02     2.2373867323E-02
     2.2371364653E-02     2.2368862543E-02     2.2366360993E-02     2.2363860002E-02
     2.2361359571E-02     2.2358859698E-02     2.2356360385E-02     2.2353861630E-02
     2.2351363433E-02     2.2348865795E-02     2.2346368715E-02     2.2343872193E-02
     2.2341376229E-02     2.2338880822E-02     2.2336385973E-02     2.2333891681E-02
     2.2331397946E-02     2.2328904767E-02     2.2326412146E-02     2.2323920080E-02
     2.2321428571E-02     2.2318937619E-02     2.2316447222E-02     2.2313957380E-02
     2.2311468095E-02     2.2308979364E-02     2.2306491189E-02     2.2304003569E-02
     2.2301516503E-02     2.2299029992E-02     2.2296544036E-02     2.2294058633E-02
     2.2291573785E-02     2.2289089491E-02     2.2286605750E-02     2.2284122563E-02
     2.2281639929E-02     2.2279157848E-02     2.2276676320E-02     2.2274195345E-02
     2.2271714922E-02     2.2269235052E-02     2.2266755734E-02     2.2264276968E-02
     2.2261798753E-02     2.2259321091E-02     2.2256843980E-02     2.2254367420E-02
     2.2251891411E-02     2.2249415953E-02     2.2246941046E-02     2.2244466689E-02
     2.2241992883E-02     2.2239519626E-02     2.2237046920E-02     2.2234574764E-02
     2.2232103157E-02     2.2229632100E-02     2.2227161591E-02     2.2224691632E-02
     2.2222222222E-02     2.2219753361E-02     2.2217285048E-02     2.2214817283E-02
     2.2212350067E-02     2.2209883398E-02     2.2207417277E-02     2.2204951704E-02
     2.2202486679E-02     2.2200022200E-02     2.2197558269E-02     2.2195094884E-02
     2.2192632046E-02     2.2190169755E-02     2.2187708010E-02     2.2185246811E-02
     2.2182786158E-02     2.2180326051E-02     2.2177866489E-02     2.2175407473E-02
     2.2172949002E-02     2.2170491076E-02     2.2168033695E-02     2.2165576859E-02
     2.2163120567E-02     2.2160664820E-02     2.2158209617E-02     2.2155754957E-02
     2.2153300842E-02     2.2150847270E-02     2.2148394241E-02     2.2145941756E-02
     2.2143489814E-02     2.2141038415E-02     2.2138587558E-02     2.2136137244E-02
     2.2133687472E-02     2.2131238243E-02     2.2128789555E-02     2.2126341409E-02
     2.2123893805E-02     2.2121446743E-02     2.2119000221E-02     2.2116554241E-02
     2.2114108801E-02     2.2111663903E-02     2.2109219545E-02     2.2106775727E-02
     2.2104332449E-02     2.2101889712E-02     2.2099447514E-02     2.2097005856E-02
     2.2094564737E-02     2.2092124158E-02     2.2089684118E-02     2.2087244616E-02
     2.2084805654E-02     2.2082367230E-02     2.2079929344E-02     2.2077491997E-02
     2.2075055188E-02     2.2072618916E-02     2.2070183183E-02     2.2067747986E-02
     2.2065313327E-02     2.2062879206E-02     2.2060445621E-02     2.2058012573E-02
     2.2055580062E-02     2.2053148087E-02     2.2050716648E-02     2.2048285746E-02
     2.2045855379E-02     2.2043425548E-02     2.2040996253E-02     2.2038567493E-02
     2.2036139268E-02     2.2033711579E-02     2.2031284424E-02     2.2028857804E-02
     2.2026431718E-02     2.2024006167E-02     2.2021581150E-02     2.2019156666E-02
     2.2016732717E-02     2.2014309301E-02     2.2011886419E-02     2.2009464070E-02
     2.2007042254E-02     2.2004620970E-02     2.2002200220E-02     2.1999780002E-02
     2.1997360317E-02     2.1994941164E-02     2.1992522542E-02     2.1990104453E-02
     2.1987686895E-02     2.1985269869E-02     2.1982853374E-02     2.1980437411E-02
     2.1978021978E-02     2.1975607076E-02     2.1973192705E-02     2.1970778864E-02
     2.1968365554E-02     2.1965952773E-02     2.1963540523E-02     2.1961128802E-02
     2.1958717611E-02     2.1956306949E-02     2.1953896817E-02     2.1951487213E-02
     2.1949078139E-02     2.1946669593E-02     2.1944261576E-02     2.1941854087E-02
     2.1939447126E-02     2.1937040693E-02     2.1934634788E-02     2.1932229411E-02
     2.1929824561E-02     2.1927420239E-02     2.1925016444E-02     2.1922613175E-02
     2.1920210434E-02     2.1917808219E-02     2.1915406531E-02     2.1913005369E-02
     2.1910604733E-02     2.1908204623E-02     2.1905805038E-02     2.1903405980E-02
     2.1901007446E-02     2.1898609438E-02     2.1896211955E-02     2.1893814997E-02
     2.1891418564E-02     2.1889022655E-02     2.1886627271E-02     2.1884232411E-02
     2.1881838074E-02     2.1879444262E-02     2.1877050974E-02     2.1874658208E-02
     2.1872265967E-02     2.1869874248E-02     2.1867483053E-02     2.1865092380E-02
     2.1862702230E-02     2.1860312602E-02     2.1857923497E-02     2.1855534914E-02
     2.1853146853E-02     2.1850759314E-02     2.1848372296E-02     2.1845985800E-02
     2.1843599825E-02     2.1841214372E-02     2.1838829439E-02     2.1836445027E-02
     2.1834061135E-02     2.1831677764E-02     2.1829294914E-02     2.1826912583E-02
     2.1824530773E-02     2.1822149482E-02     2.1819768710E-02     2.1817388459E-02
     2.1815008726E-02     2.1812629512E-02     2.1810250818E-02     2.1807872642E-02
     2.1805494985E-02     2.1803117846E-02     2.1800741225E-02     2.1798365123E-02
     2.1795989538E-02     2.1793614471E-02     2.1791239922E-02     2.1788865890E-02
     2.1786492375E-02     2.1784119377E-02     2.1781746896E-02     2.1779374932E-02
     2.1777003484E-02     2.1774632553E-02     2.1772262138E-02     2.1769892239E-02
     2.1767522856E-02     2.1765153988E-02     2.1762785637E-02     2.1760417800E-02
     2.1758050479E-02     2.1755683672E-02     2.1753317381E-02     2.1750951604E-02
     2.1748586342E-02     2.1746221594E-02     2.1743857360E-02     2.1741493641E-02
     2.1739130435E-02     2.1736767743E-02     2.1734405564E-02     2.1732043899E-02
     2.1729682747E-02     2.1727322108E-02     2.1724961981E-02     2.1722602368E-02
     2.1720243267E-02     2.1717884678E-02     2.1715526602E-02     2.1713169037E-02
     2.1710811984E-02     2.1708455443E-02     2.1706099414E-02     2.1703743896E-02
     2.1701388889E-02     2.1699034393E-02     2.1696680408E-02     2.1694326934E-02
     2.1691973970E-02     2.1689621516E-02     2.1687269573E-02     2.1684918139E-02
     2.1682567216E-02     2.1680216802E-02     2.1677866898E-02     2.1675517503E-02
     2.1673168617E-02     2.1670820241E-02     2.1668472373E-02     2.1666125014E-02
     2.1663778163E-02     2.1661431821E-02     2.1659085987E-02     2.1656740661E-02
     2.1654395842E-02     2.1652051532E-02     2.1649707729E-02     2.1647364433E-02
     2.1645021645E-02     2.1642679364E-02     2.1640337589E-02     2.1637996322E-02
     2.1635655560E-02     2.1633315306E-02     2.1630975557E-02     2.1628636314E-02
     2.1626297578E-02     2.1623959347E-02     2.1621621622E-02     2.1619284402E-02
     2.1616947687E-02     2.1614611477E-02     2.1612275773E-02     2.1609940573E-02
     2.1607605877E-02     2.1605271686E-02     2.1602938000E-02     2.1600604817E-02
     2.1598272138E-02     2.1595939963E-02     2.1593608292E-02     2.1591277124E-02
     2.1588946459E-02     2.1586616298E-02     2.1584286639E-02     2.1581957484E-02
     2.1579628830E-02     2.1577300680E-02     2.1574973031E-02     2.1572645885E-02
     2.1570319241E-02     2.1567993098E-02     2.1565667457E-02     2.1563342318E-02
     2.1561017680E-02     2.1558693543E-02     2.1556369907E-02     2.1554046772E-02
     2.1551724138E-02     2.1549402004E-02     2.1547080371E-02     2.1544759237E-02
     2.1542438604E-02     2.1540118471E-02     2.1537798837E-02     2.1535479703E-02
     2.1533161068E-02     2.1530842933E-02     2.1528525296E-02     2.1526208158E-02
     2.1523891520E-02     2.1521575379E-02     2.1519259737E-02     2.1516944594E-02
     2.1514629948E-02     2.1512315801E-02     2.1510002151E-02     2.1507688999E-02
     2.1505376344E-02     2.1503064187E-02     2.1500752526E-02     2.1498441363E-02
     2.1496130696E-02     2.1493820527E-02     2.1491510853E-02     2.1489201676E-02
     2.1486892995E-02     2.1484584810E-02     2.1482277121E-02     2.1479969928E-02
     2.1477663230E-02     2.1475357028E-02     2.1473051321E-02     2.1470746108E-02
     2.1468441391E-02     2.1466137169E-02     2.1463833441E-02     2.1461530207E-02
     2.1459227468E-02     2.1456925223E-02     2.1454623471E-02     2.1452322214E-02
     2.1450021450E-02     2.1447721180E-02     2.1445421403E-02     2.1443122119E-02
     2.1440823328E-02     2.1438525029E-02     2.1436227224E-02     2.1433929911E-02
     2.1431633090E-02     2.1429336762E-02     2.1427040926E-02     2.1424745581E-02
     2.1422450728E-02     2.1420156367E-02     2.1417862497E-02     2.1415569119E-02
     2.1413276231E-02     2.1410983835E-02     2.1408691929E-02     2.1406400514E-02
     2.1404109589E-02     2.1401819155E-02     2.1399529210E-02     2.1397239756E-02
     2.1394950792E-02     2.1392662317E-02     2.1390374332E-02     2.1388086836E-02
     2.1385799829E-02     2.1383513311E-02     2.1381227282E-02     2.1378941742E-02
     2.1376656691E-02     2.1374372128E-02     2.1372088053E-02     2.1369804466E-02
     2.1367521368E-02     2.1365238757E-02     2.1362956633E-02     2.1360674997E-02
     2.1358393849E-02     2.1356113187E-02     2.1353833013E-02     2.1351553326E-02
     2.1349274125E-02     2.1346995410E-02     2.1344717182E-02     2.1342439441E-02
     2.1340162185E-02     2.1337885416E-02     2.1335609132E-02     2.1333333333E-02
     2.1331058020E-02     2.1328783193E-02     2.1326508851E-02     2.1324234993E-02
     2.1321961620E-02     2.1319688733E-02     2.1317416329E-02     2.1315144410E-02
     2.1312872975E-02     2.1310602025E-02     2.1308331558E-02     2.1306061575E-02
     2.1303792075E-02     2.1301523059E-02     2.1299254526E-02     2.1296986476E-02
     2.1294718910E-02     2.1292451826E-02     2.1290185225E-02     2.1287919106E-02
     2.1285653470E-02     2.1283388315E-02     2.1281123643E-02     2.1278859453E-02
     2.1276595745E-02     2.1274332518E-02     2.1272069772E-02     2.1269807508E-02
     2.1267545725E-02     2.1265284423E-02     2.1263023602E-02     2.1260763261E-02
     2.1258503401E-02     2.1256244022E-02     2.1253985122E-02     2.1251726703E-02
     2.1249468763E-02     2.1247211304E-02     2.1244954323E-02     2.1242697823E-02
     2.1240441801E-02     2.1238186259E-02     2.1235931196E-02     2.1233676611E-02
     2.1231422505E-02     2.1229168878E-02     2.1226915729E-02     2.1224663058E-02
     2.1222410866E-02     2.1220159151E-02     2.1217907914E-02     2.1215657155E-02
     2.1213406873E-02     2.1211157069E-02     2.1208907741E-02     2.1206658891E-02
     2.1204410517E-02     2.1202162621E-02     2.1199915200E-02     2.1197668256E-02
     2.1195421789E-02     2.1193175797E-02     2.1190930282E-02     2.1188685242E-02
     2.1186440678E-02     2.1184196589E-02     2.1181952976E-02     2.1179709838E-02
     2.1177467175E-02     2.1175224987E-02     2.1172983273E-02     2.1170742035E-02
     2.1168501270E-02     2.1166260980E-02     2.1164021164E-02     2.1161781822E-02
     2.1159542954E-02     2.1157304559E-02     2.1155066638E-02     2.1152829191E-02
     2.1150592217E-02     2.1148355715E-02     2.1146119687E-02     2.1143884132E-02
     2.1141649049E-02     2.1139414438E-02     2.1137180300E-02     2.1134946634E-02
     2.1132713440E-02     2.1130480718E-02     2.1128248468E-02     2.1126016690E-02
     2.1123785382E-02     2.1121554546E-02     2.1119324182E-02     2.1117094288E-02
     2.1114864865E-02     2.1112635913E-02     2.1110407431E-02     2.1108179420E-02
     2.1105951878E-02     2.1103724807E-02     2.1101498206E-02     2.1099272075E-02
     2.1097046414E-02     2.1094821221E-02     2.1092596499E-02     2.1090372245E-02
     2.1088148461E-02     2.1085925145E-02     2.1083702298E-02     2.1081479920E-02
     2.1079258010E-02     2.1077036569E-02     2.1074815595E-02     2.1072595090E-02
     2.1070375053E-02     2.1068155483E-02     2.1065936381E-02     2.1063717746E-02
     2.1061499579E-02     2.1059281878E-02     2.1057064645E-02     2.1054847879E-02
     2.1052631579E-02     2.1050415746E-02     2.1048200379E-02     2.1045985478E-02
     2.1043771044E-02     2.1041557075E-02     2.1039343572E-02     2.1037130535E-02
     2.1034917964E-02     2.1032705858E-02     2.1030494217E-02     2.1028283041E-02
     2.1026072330E-02     2.1023862083E-02     2.1021652302E-02     2.1019442985E-02
     2.1017234132E-02     2.1015025743E-02     2.1012817819E-02     2.1010610358E-02
     2.1008403361E-02     2.1006196828E-02     2.1003990758E-02     2.1001785152E-02
     2.0999580008E-02     2.0997375328E-02     2.0995171111E-02     2.0992967356E-02
     2.0990764064E-02     2.0988561234E-02     2.0986358867E-02     2.0984156961E-02
     2.0981955518E-02     2.0979754537E-02     2.0977554017E-02     2.0975353959E-02
     2.0973154362E-02     2.0970955227E-02     2.0968756553E-02     2.0966558339E-02
     2.0964360587E-02     2.0962163295E-02     2.0959966464E-02     2.0957770093E-02
     2.0955574183E-02     2.0953378732E-02     2.0951183742E-02     2.0948989211E-02
     2.0946795140E-02     2.0944601529E-02     2.0942408377E-02     2.0940215684E-02
     2.0938023451E-02     2.0935831676E-02     2.0933640360E-02     2.0931449503E-02
     2.0929259104E-02     2.0927069164E-02     2.0924879682E-02     2.0922690658E-02
     2.0920502092E-02     2.0918313984E-02     2.0916126333E-02     2.0913939140E-02
     2.0911752405E-02     2.0909566127E-02     2.0907380305E-02     2.0905194941E-02
     2.0903010033E-02     2.0900825583E-02     2.0898641588E-02     2.0896458050E-02
     2.0894274969E-02     2.0892092343E-02     2.0889910173E-02     2.0887728460E-02
     2.0885547201E-02     2.0883366399E-02     2.0881186051E-02     2.0879006159E-02
     2.0876826722E-02     2.0874647740E-02     2.0872469213E-02     2.0870291141E-02
     2.0868113523E-02     2.0865936359E-02     2.0863759649E-02     2.0861583394E-02
     2.0859407593E-02     2.0857232245E-02     2.0855057351E-02     2.0852882911E-02
     2.0850708924E-02     2.0848535390E-02     2.0846362310E-02     2.0844189682E-02
     2.0842017507E-02     2.0839845785E-02     2.0837674516E-02     2.0835503698E-02
     2.0833333333E-02     2.0831163420E-02     2.0828993960E-02     2.0826824951E-02
     2.0824656393E-02     2.0822488287E-02     2.0820320633E-02     2.0818153430E-02
     2.0815986678E-02     2.0813820377E-02     2.0811654527E-02     2.0809489127E-02
     2.0807324178E-02     2.0805159680E-02     2.0802995631E-02     2.0800832033E-02
     2.0798668885E-02     2.0796506187E-02     2.0794343938E-02     2.0792182140E-02
     2.0790020790E-02     2.0787859890E-02     2.0785699439E-02     2.0783539437E-02
     2.0781379884E-02     2.0779220779E-02     2.0777062123E-02     2.0774903916E-02
     2.0772746157E-02     2.0770588846E-02     2.0768431983E-02     2.0766275568E-02
     2.0764119601E-02     2.0761964082E-02     2.0759809010E-02     2.0757654385E-02
     2.0755500208E-02     2.0753346477E-02     2.0751193194E-02     2.0749040357E-02
     2.0746887967E-02     2.0744736023E-02     2.0742584526E-02     2.0740433475E-02
     2.0738282870E-02     2.0736132711E-02     2.0733982998E-02     2.0731833731E-02
     2.0729684909E-02     2.0727536532E-02     2.0725388601E-02     2.0723241115E-02
     2.0721094074E-02     2.0718947477E-02     2.0716801326E-02     2.0714655619E-02
     2.0712510356E-02     2.0710365538E-02     2.0708221164E-02     2.0706077234E-02
     2.0703933747E-02     2.0701790705E-02     2.0699648106E-02     2.0697505951E-02
     2.0695364238E-02     2.0693222969E-02     2.0691082144E-02     2.0688941761E-02
     2.0686801820E-02     2.0684662323E-02     2.0682523268E-02     2.0680384655E-02
     2.0678246485E-02     2.0676108756E-02     2.0673971470E-02     2.0671834625E-02
     2.0669698222E-02     2.0667562261E-02     2.0665426741E-02     2.0663291662E-02
     2.0661157025E-02     2.0659022828E-02     2.0656889073E-02     2.0654755758E-02
     2.0652622883E-02     2.0650490449E-02     2.0648358456E-02     2.0646226902E-02
     2.0644095789E-02     2.0641965115E-02     2.0639834881E-02     2.0637705087E-02
     2.0635575733E-02     2.0633446817E-02     2.0631318341E-02     2.0629190304E-02
     2.0627062706E-02     2.0624935547E-02     2.0622808827E-02     2.0620682545E-02
     2.0618556701E-02     2.0616431296E-02     2.0614306329E-02     2.0612181799E-02
     2.0610057708E-02     2.0607934055E-02     2.0605810839E-02     2.0603688060E-02
     2.0601565719E-02     2.0599443815E-02     2.0597322348E-02     2.0595201318E-02
     2.0593080725E-02     2.0590960568E-02     2.0588840848E-02     2.0586721565E-02
     2.0584602717E-02     2.0582484306E-02     2.0580366331E-02     2.0578248791E-02
     2.0576131687E-02     2.0574015019E-02     2.0571898786E-02     2.0569782989E-02
     2.0567667626E-02     2.0565552699E-02     2.0563438207E-02     2.0561324149E-02
     2.0559210526E-02     2.0557097338E-02     2.0554984584E-02     2.0552872264E-02
     2.0550760378E-02     2.0548648926E-02     2.0546537908E-02     2.0544427324E-02
     2.0542317173E-02     2.0540207456E-02     2.0538098172E-02     2.0535989321E-02
     2.0533880903E-02     2.0531772919E-02     2.0529665366E-02     2.0527558247E-02
     2.0525451560E-02     2.0523345305E-02     2.0521239483E-02     2.0519134093E-02
     2.0517029134E-02     2.0514924608E-02     2.0512820513E-02     2.0510716850E-02
     2.0508613618E-02     2.0506510817E-02     2.0504408448E-02     2.0502306509E-02
     2.0500205002E-02     2.0498103925E-02     2.0496003279E-02     2.0493903064E-02
     2.0491803279E-02     2.0489703924E-02     2.0487604999E-02     2.0485506504E-02
     2.0483408439E-02     2.0481310804E-02     2.0479213598E-02     2.0477116822E-02
     2.0475020475E-02     2.0472924557E-02     2.0470829069E-02     2.0468734009E-02
     2.0466639378E-02     2.0464545175E-02     2.0462451402E-02     2.0460358056E-02
     2.0458265139E-02     2.0456172650E-02     2.0454080589E-02     2.0451988956E-02
     2.0449897751E-02     2.0447806973E-02     2.0445716622E-02     2.0443626699E-02
     2.0441537204E-02     2.0439448135E-02     2.0437359493E-02     2.0435271278E-02
     2.0433183490E-02     2.0431096128E-02     2.0429009193E-02     2.0426922684E-02
     2.0424836601E-02     2.0422750945E-02     2.0420665714E-02     2.0418580909E-02
     2.0416496529E-02     2.0414412575E-02     2.0412329047E-02     2.0410245943E-02
     2.0408163265E-02     2.0406081012E-02     2.0403999184E-02     2.0401917780E-02
     2.0399836801E-02     2.0397756247E-02     2.0395676117E-02     2.0393596411E-02
     2.0391517129E-02     2.0389438271E-02     2.0387359837E-02     2.0385281827E-02
     2.0383204240E-02     2.0381127076E-02     2.0379050336E-02     2.0376974019E-02
     2.0374898126E-02     2.0372822655E-02     2.0370747606E-02     2.0368672981E-02
     2.0366598778E-02     2.0364524997E-02     2.0362451639E-02     2.0360378703E-02
     2.0358306189E-02     2.0356234097E-02     2.0354162426E-02     2.0352091177E-02
     2.0350020350E-02     2.0347949944E-02     2.0345879959E-02     2.0343810396E-02
     2.0341741253E-02     2.0339672531E-02     2.0337604230E-02     2.0335536350E-02
     2.0333468890E-02     2.0331401850E-02     2.0329335231E-02     2.0327269031E-02
     2.0325203252E-02     2.0323137892E-02     2.0321072953E-02     2.0319008432E-02
     2.0316944332E-02     2.0314880650E-02     2.0312817388E-02     2.0310754545E-02
     2.0308692120E-02     2.0306630115E-02     2.0304568528E-02     2.0302507360E-02
     2.0300446610E-02     2.0298386278E-02     2.0296326365E-02     2.0294266870E-02
     2.0292207792E-02     2.0290149133E-02     2.0288090891E-02     2.0286033066E-02
     2.0283975659E-02     2.0281918670E-02     2.0279862097E-02     2.0277805941E-02
     2.0275750203E-02     2.0273694881E-02     2.0271639976E-02     2.0269585487E-02
     2.0267531415E-02     2.0265477759E-02     2.0263424519E-02     2.0261371695E-02
     2.0259319287E-02     2.0257267295E-02     2.0255215718E-02     2.0253164557E-02
     2.0251113811E-02     2.0249063481E-02     2.0247013565E-02     2.0244964065E-02
     2.0242914980E-02     2.0240866309E-02     2.0238818053E-02     2.0236770211E-02
     2.0234722784E-02     2.0232675771E-02     2.0230629173E-02     2.0228582988E-02
     2.0226537217E-02     2.0224491860E-02     2.0222446916E-02     2.0220402386E-02
     2.0218358269E-02     2.0216314566E-02     2.0214271276E-02     2.0212228398E-02
     2.0210185934E-02     2.0208143882E-02     2.0206102243E-02     2.0204061016E-02
     2.0202020202E-02     2.0199979800E-02     2.0197939810E-02     2.0195900232E-02
     2.0193861066E-02     2.0191822312E-02     2.0189783969E-02     2.0187746038E-02
     2.0185708518E-02     2.0183671410E-02     2.0181634712E-02     2.0179598426E-02
     2.0177562550E-02     2.0175527086E-02     2.0173492031E-02     2.0171457388E-02
     2.0169423154E-02     2.0167389331E-02     2.0165355919E-02     2.0163322916E-02
     2.0161290323E-02     2.0159258139E-02     2.0157226366E-02     2.0155195002E-02
     2.0153164047E-02     2.0151133501E-02     2.0149103365E-02     2.0147073638E-02
     2.0145044319E-02     2.0143015409E-02     2.0140986908E-02     2.0138958816E-02
     2.0136931132E-02     2.0134903856E-02     2.0132876988E-02     2.0130850528E-02
     2.0128824477E-02     2.0126798833E-02     2.0124773596E-02     2.0122748767E-02
     2.0120724346E-02     2.0118700332E-02     2.0116676725E-02     2.0114653525E-02
     2.0112630732E-02     2.0110608346E-02     2.0108586366E-02     2.0106564793E-02
     2.0104543627E-02     2.0102522867E-02     2.0100502513E-02     2.0098482565E-02
     2.0096463023E-02     2.0094443886E-02     2.0092425156E-02     2.0090406831E-02
     2.0088388911E-02     2.0086371397E-02     2.0084354288E-02     2.0082337584E-02
     2.0080321285E-02     2.0078305391E-02     2.0076289902E-02     2.0074274817E-02
     2.0072260136E-02     2.0070245861E-02     2.0068231989E-02     2.0066218521E-02
     2.0064205457E-02     2.0062192798E-02     2.0060180542E-02     2.0058168689E-02
     2.0056157240E-02     2.0054146195E-02     2.0052135552E-02     2.0050125313E-02
     2.0048115477E-02     2.0046106044E-02     2.0044097013E-02     2.0042088386E-02
     2.0040080160E-02     2.0038072337E-02     2.0036064917E-02     2.0034057898E-02
     2.0032051282E-02     2.0030045068E-02     2.0028039255E-02     2.0026033844E-02
     2.0024028835E-02     2.0022024227E-02     2.0020020020E-02     2.0018016215E-02
     2.0016012810E-02     2.0014009807E-02     2.0012007204E-02     2.0010005003E-02
     2.0008003201E-02     2.0006001801E-02     2.0004000800E-02     2.0002000200E-02
     2.0000000000E-02     1.9998000200E-02     1.9996000800E-02     1.9994001799E-02
     1.9992003199E-02     1.9990004998E-02     1.9988007196E-02     1.9986009793E-02
     1.9984012790E-02     1.9982016185E-02     1.9980019980E-02     1.9978024173E-02
     1.9976028765E-02     1.9974033756E-02     1.9972039145E-02     1.9970044933E-02
     1.9968051118E-02     1.9966057702E-02     1.9964064684E-02     1.9962072063E-02
     1.9960079840E-02     1.9958088015E-02     1.9956096588E-02     1.9954105557E-02
     1.9952114924E-02     1.9950124688E-02     1.9948134849E-02     1.9946145407E-02
     1.9944156362E-02     1.9942167714E-02     1.9940179462E-02     1.9938191606E-02
     1.9936204147E-02     1.9934217084E-02     1.9932230417E-02     1.9930244145E-02
     1.9928258270E-02     1.9926272791E-02     1.9924287707E-02     1.9922303018E-02
     1.9920318725E-02     1.9918334827E-02     1.9916351324E-02     1.9914368217E-02
     1.9912385504E-02     1.9910403186E-02     1.9908421262E-02     1.9906439733E-02
     1.9904458599E-02     1.9902477858E-02     1.9900497512E-02     1.9898517560E-02
     1.9896538002E-02     1.9894558838E-02     1.9892580068E-02     1.9890601691E-02
     1.9888623707E-02     1.9886646117E-02     1.9884668920E-02     1.9882692117E-02
     1.9880715706E-02     1.9878739688E-02     1.9876764063E-02     1.9874788830E-02
     1.9872813990E-02     1.9870839543E-02     1.9868865488E-02     1.9866891825E-02
     1.9864918554E-02     1.9862945675E-02     1.9860973188E-02     1.9859001092E-02
     1.9857029388E-02     1.9855058076E-02     1.9853087155E-02     1.9851116625E-02
     1.9849146487E-02     1.9847176739E-02     1.9845207382E-02     1.9843238417E-02
     1.9841269841E-02     1.9839301657E-02     1.9837333862E-02     1.9835366458E-02
     1.9833399445E-02     1.9831432821E-02     1.9829466587E-02     1.9827500744E-02
     1.9825535289E-02     1.9823570225E-02     1.9821605550E-02     1.9819641264E-02
     1.9817677368E-02     1.9815713861E-02     1.9813750743E-02     1.9811788014E-02
     1.9809825674E-02     1.9807863722E-02     1.9805902159E-02     1.9803940984E-02
     1.9801980198E-02     1.9800019800E-02     1.9798059790E-02     1.9796100168E-02
     1.9794140934E-02     1.9792182088E-02     1.9790223630E-02     1.9788265559E-02
     1.9786307875E-02     1.9784350579E-02     1.9782393670E-02     1.9780437148E-02
     1.9778481013E-02     1.9776525265E-02     1.9774569903E-02     1.9772614928E-02
     1.9770660340E-02     1.9768706138E-02     1.9766752323E-02     1.9764798893E-02
     1.9762845850E-02     1.9760893192E-02     1.9758940921E-02     1.9756989035E-02
     1.9755037535E-02     1.9753086420E-02     1.9751135690E-02     1.9749185346E-02
     1.9747235387E-02     1.9745285813E-02     1.9743336624E-02     1.9741387820E-02
     1.9739439400E-02     1.9737491365E-02     1.9735543714E-02     1.9733596448E-02
     1.9731649566E-02     1.9729703068E-02     1.9727756954E-02     1.9725811224E-02
     1.9723865878E-02     1.9721920915E-02     1.9719976336E-02     1.9718032140E-02
     1.9716088328E-02     1.9714144899E-02     1.9712201853E-02     1.9710259190E-02
     1.9708316910E-02     1.9706375012E-02     1.9704433498E-02     1.9702492365E-02
     1.9700551615E-02     1.9698611248E-02     1.9696671263E-02     1.9694731659E-02
     1.9692792438E-02     1.9690853599E-02     1.9688915141E-02     1.9686977065E-02
     1.9685039370E-02     1.9683102057E-02     1.9681165125E-02     1.9679228574E-02
     1.9677292405E-02     1.9675356616E-02     1.9673421208E-02     1.9671486181E-02
     1.9669551534E-02     1.9667617268E-02     1.9665683382E-02     1.9663749877E-02
     1.9661816752E-02     1.9659884007E-02     1.9657951641E-02     1.9656019656E-02
     1.9654088050E-02     1.9652156824E-02     1.9650225978E-02     1.9648295510E-02
     1.9646365422E-02     1.9644435714E-02     1.9642506384E-02     1.9640577433E-02
     1.9638648861E-02     1.9636720668E-02     1.9634792853E-02     1.9632865417E-02
     1.9630938359E-02     1.9629011679E-02     1.9627085378E-02     1.9625159454E-02
     1.9623233909E-02     1.9621308741E-02     1.9619383951E-02     1.9617459539E-02
     1.9615535504E-02     1.9613611847E-02     1.9611688566E-02     1.9609765663E-02
     1.9607843137E-02     1.9605920988E-02     1.9603999216E-02     1.9602077820E-02
     1.9600156801E-02     1.9598236159E-02     1.9596315893E-02     1.9594396003E-02
     1.9592476489E-02     1.9590557351E-02     1.9588638590E-02     1.9586720204E-02
     1.9584802193E-02     1.9582884559E-02     1.9580967300E-02     1.9579050416E-02
     1.9577133908E-02     1.9575217774E-02     1.9573302016E-02     1.9571386633E-02
     1.9569471624E-02     1.9567556991E-02     1.9565642731E-02     1.9563728847E-02
     1.9561815336E-02     1.9559902200E-02     1.9557989439E-02     1.9556077051E-02
     1.9554165037E-02     1.9552253397E-02     1.9550342131E-02     1.9548431238E-02
     1.9546520719E-02     1.9544610574E-02     1.9542700801E-02     1.9540791402E-02
     1.9538882376E-02     1.9536973723E-02     1.9535065442E-02     1.9533157535E-02
     1.9531250000E-02     1.9529342838E-02     1.9527436048E-02     1.9525529630E-02
     1.9523623585E-02     1.9521717911E-02     1.9519812610E-02     1.9517907680E-02
     1.9516003123E-02     1.9514098936E-02     1.9512195122E-02     1.9510291679E-02
     1.9508388607E-02     1.9506485907E-02     1.9504583577E-02     1.9502681619E-02
     1.9500780031E-02     1.9498878814E-02     1.9496977968E-02     1.9495077493E-02
     1.9493177388E-02     1.9491277653E-02     1.9489378289E-02     1.9487479295E-02
     1.9485580670E-02     1.9483682416E-02     1.9481784531E-02     1.9479887017E-02
     1.9477989871E-02     1.9476093096E-02     1.9474196689E-02     1.9472300652E-02
     1.9470404984E-02     1.9468509686E-02     1.9466614756E-02     1.9464720195E-02
     1.9462826002E-02     1.9460932179E-02     1.9459038723E-02     1.9457145637E-02
     1.9455252918E-02     1.9453360568E-02     1.9451468586E-02     1.9449576972E-02
     1.9447685725E-02     1.9445794847E-02     1.9443904336E-02     1.9442014193E-02
     1.9440124417E-02     1.9438235008E-02     1.9436345967E-02     1.9434457293E-02
     1.9432568986E-02     1.9430681045E-02     1.9428793472E-02     1.9426906265E-02
     1.9425019425E-02     1.9423132951E-02     1.9421246844E-02     1.9419361103E-02
     1.9417475728E-02     1.9415590719E-02     1.9413706076E-02     1.9411821799E-02
     1.9409937888E-02     1.9408054343E-02     1.9406171162E-02     1.9404288348E-02
     1.9402405898E-02     1.9400523814E-02     1.9398642095E-02     1.9396760741E-02
     1.9394879752E-02     1.9392999127E-02     1.9391118868E-02     1.9389238972E-02
     1.9387359442E-02     1.9385480275E-02     1.9383601473E-02     1.9381723035E-02
     1.9379844961E-02     1.9377967251E-02     1.9376089905E-02     1.9374212923E-02
     1.9372336304E-02     1.9370460048E-02     1.9368584156E-02     1.9366708628E-02
     1.9364833462E-02     1.9362958660E-02     1.9361084221E-02     1.9359210144E-02
     1.9357336431E-02     1.9355463079E-02     1.9353590091E-02     1.9351717465E-02
     1.9349845201E-02     1.9347973300E-02     1.9346101760E-02     1.9344230583E-02
     1.9342359768E-02     1.9340489314E-02     1.9338619223E-02     1.9336749492E-02
     1.9334880124E-02     1.9333011116E-02     1.9331142471E-02     1.9329274186E-02
     1.9327406262E-02     1.9325538699E-02     1.9323671498E-02     1.9321804657E-02
     1.9319938176E-02     1.9318072056E-02     1.9316206297E-02     1.9314340898E-02
     1.9312475859E-02     1.9310611181E-02     1.9308746862E-02     1.9306882904E-02
     1.9305019305E-02     1.9303156066E-02     1.9301293187E-02     1.9299430667E-02
     1.9297568506E-02     1.9295706705E-02     1.9293845263E-02     1.9291984181E-02
     1.9290123457E-02     1.9288263092E-02     1.9286403086E-02     1.9284543438E-02
     1.9282684150E-02     1.9280825219E-02     1.9278966647E-02     1.9277108434E-02
     1.9275250578E-02     1.9273393081E-02     1.9271535941E-02     1.9269679160E-02
     1.9267822736E-02     1.9265966670E-02     1.9264110961E-02     1.9262255610E-02
     1.9260400616E-02     1.9258545980E-02     1.9256691700E-02     1.9254837778E-02
     1.9252984213E-02     1.9251131004E-02     1.9249278152E-02     1.9247425657E-02
     1.9245573518E-02     1.9243721736E-02     1.9241870310E-02     1.9240019240E-02
     1.9238168526E-02     1.9236318169E-02     1.9234468167E-02     1.9232618521E-02
     1.9230769231E-02     1.9228920296E-02     1.9227071717E-02     1.9225223493E-02
     1.9223375625E-02     1.9221528111E-02     1.9219680953E-02     1.9217834150E-02
     1.9215987702E-02     1.9214141608E-02     1.9212295869E-02     1.9210450485E-02
     1.9208605455E-02     1.9206760780E-02     1.9204916459E-02     1.9203072492E-02
     1.9201228879E-02     1.9199385620E-02     1.9197542715E-02     1.9195700163E-02
     1.9193857965E-02     1.9192016121E-02     1.9190174631E-02     1.9188333493E-02
     1.9186492709E-02     1.9184652278E-02     1.9182812200E-02     1.9180972475E-02
     1.9179133103E-02     1.9177294084E-02     1.9175455417E-02     1.9173617103E-02
     1.9171779141E-02     1.9169941532E-02     1.9168104274E-02     1.9166267369E-02
     1.9164430816E-02     1.9162594615E-02     1.9160758766E-02     1.9158923269E-02
     1.9157088123E-02     1.9155253328E-02     1.9153418885E-02     1.9151584794E-02
     1.9149751053E-02     1.9147917664E-02     1.9146084626E-02     1.9144251938E-02
     1.9142419602E-02     1.9140587616E-02     1.9138755981E-02     1.9136924696E-02
     1.9135093762E-02     1.9133263178E-02     1.9131432944E-02     1.9129603061E-02
     1.9127773527E-02     1.9125944344E-02     1.9124115510E-02     1.9122287026E-02
     1.9120458891E-02     1.9118631106E-02     1.9116803670E-02     1.9114976584E-02
     1.9113149847E-02     1.9111323459E-02     1.9109497420E-02     1.9107671730E-02
     1.9105846389E-02     1.9104021397E-02     1.9102196753E-02     1.9100372457E-02
     1.9098548510E-02     1.9096724912E-02     1.9094901661E-02     1.9093078759E-02
     1.9091256205E-02     1.9089433998E-02     1.9087612140E-02     1.9085790629E-02
     1.9083969466E-02     1.9082148650E-02     1.9080328182E-02     1.9078508061E-02
     1.9076688287E-02     1.9074868860E-02     1.9073049781E-02     1.9071231048E-02
     1.9069412662E-02     1.9067594623E-02     1.9065776930E-02     1.9063959584E-02
     1.9062142585E-02     1.9060325932E-02     1.9058509625E-02     1.9056693664E-02
     1.9054878049E-02     1.9053062780E-02     1.9051247857E-02     1.9049433279E-02
     1.9047619048E-02     1.9045805161E-02     1.9043991621E-02     1.9042178425E-02
     1.9040365575E-02     1.9038553070E-02     1.9036740910E-02     1.9034929095E-02
     1.9033117625E-02     1.9031306499E-02     1.9029495718E-02     1.9027685282E-02
     1.9025875190E-02     1.9024065443E-02     1.9022256040E-02     1.9020446981E-02
     1.9018638266E-02     1.9016829894E-02     1.9015021867E-02     1.9013214184E-02
     1.9011406844E-02     1.9009599848E-02     1.9007793195E-02     1.9005986886E-02
     1.9004180920E-02     1.9002375297E-02     1.9000570017E-02     1.8998765080E-02
     1.8996960486E-02     1.8995156235E-02     1.8993352327E-02     1.8991548761E-02
     1.8989745537E-02     1.8987942656E-02     1.8986140118E-02     1.8984337921E-02
     1.8982536067E-02     1.8980734554E-02     1.8978933384E-02     1.8977132555E-02
     1.8975332068E-02     1.8973531923E-02     1.8971732119E-02     1.8969932657E-02
     1.8968133536E-02     1.8966334756E-02     1.8964536317E-02     1.8962738219E-02
     1.8960940463E-02     1.8959143047E-02     1.8957345972E-02     1.8955549237E-02
     1.8953752843E-02     1.8951956790E-02     1.8950161076E-02     1.8948365703E-02
     1.8946570671E-02     1.8944775978E-02     1.8942981625E-02     1.8941187612E-02
     1.8939393939E-02     1.8937600606E-02     1.8935807612E-02     1.8934014958E-02
     1.8932222643E-02     1.8930430667E-02     1.8928639031E-02     1.8926847734E-02
     1.8925056775E-02     1.8923266156E-02     1.8921475875E-02     1.8919685933E-02
     1.8917896330E-02     1.8916107065E-02     1.8914318139E-02     1.8912529551E-02
     1.8910741301E-02     1.8908953389E-02     1.8907165816E-02     1.8905378580E-02
     1.8903591682E-02     1.8901805122E-02     1.8900018900E-02     1.8898233015E-02
     1.8896447468E-02     1.8894662258E-02     1.8892877385E-02     1.8891092850E-02
     1.8889308651E-02     1.8887524790E-02     1.8885741265E-02     1.8883958078E-02
     1.8882175227E-02     1.8880392712E-02     1.8878610534E-02     1.8876828693E-02
     1.8875047188E-02     1.8873266019E-02     1.8871485186E-02     1.8869704689E-02
     1.8867924528E-02     1.8866144703E-02     1.8864365214E-02     1.8862586061E-02
     1.8860807243E-02     1.8859028760E-02     1.8857250613E-02     1.8855472801E-02
     1.8853695324E-02     1.8851918183E-02     1.8850141376E-02     1.8848364904E-02
     1.8846588767E-02     1.8844812965E-02     1.8843037498E-02     1.8841262365E-02
     1.8839487566E-02     1.8837713102E-02     1.8835938972E-02     1.8834165176E-02
     1.8832391714E-02     1.8830618586E-02     1.8828845792E-02     1.8827073331E-02
     1.8825301205E-02     1.8823529412E-02     1.8821757952E-02     1.8819986826E-02
     1.8818216033E-02     1.8816445573E-02     1.8814675447E-02     1.8812905653E-02
     1.8811136193E-02     1.8809367065E-02     1.8807598270E-02     1.8805829807E-02
     1.8804061677E-02     1.8802293880E-02     1.8800526415E-02     1.8798759282E-02
     1.8796992481E-02     1.8795226013E-02     1.8793459876E-02     1.8791694071E-02
     1.8789928598E-02     1.8788163457E-02     1.8786398647E-02     1.8784634169E-02
     1.8782870023E-02     1.8781106207E-02     1.8779342723E-02     1.8777579570E-02
     1.8775816748E-02     1.8774054257E-02     1.8772292097E-02     1.8770530267E-02
     1.8768768769E-02     1.8767007601E-02     1.8765246763E-02     1.8763486256E-02
     1.8761726079E-02     1.8759966232E-02     1.8758206715E-02     1.8756447529E-02
     1.8754688672E-02     1.8752930145E-02     1.8751171948E-02     1.8749414081E-02
     1.8747656543E-02     1.8745899335E-02     1.8744142455E-02     1.8742385906E-02
     1.8740629685E-02     1.8738873794E-02     1.8737118231E-02     1.8735362998E-02
     1.8733608093E-02     1.8731853517E-02     1.8730099270E-02     1.8728345351E-02
     1.8726591760E-02     1.8724838498E-02     1.8723085565E-02     1.8721332959E-02
     1.8719580681E-02     1.8717828732E-02     1.8716077110E-02     1.8714325816E-02
     1.8712574850E-02     1.8710824212E-02     1.8709073901E-02     1.8707323917E-02
     1.8705574261E-02     1.8703824932E-02     1.8702075930E-02     1.8700327256E-02
     1.8698578908E-02     1.8696830887E-02     1.8695083193E-02     1.8693335826E-02
     1.8691588785E-02     1.8689842071E-02     1.8688095683E-02     1.8686349622E-02
     1.8684603886E-02     1.8682858477E-02     1.8681113394E-02     1.8679368637E-02
     1.8677624206E-02     1.8675880101E-02     1.8674136321E-02     1.8672392867E-02
     1.8670649739E-02     1.8668906935E-02     1.8667164458E-02     1.8665422305E-02
     1.8663680478E-02     1.8661938975E-02     1.8660197798E-02     1.8658456946E-02
     1.8656716418E-02     1.8654976215E-02     1.8653236337E-02     1.8651496783E-02
     1.8649757553E-02     1.8648018648E-02     1.8646280067E-02     1.8644541810E-02
     1.8642803878E-02     1.8641066269E-02     1.8639328984E-02     1.8637592023E-02
     1.8635855386E-02     1.8634119072E-02     1.8632383082E-02     1.8630647415E-02
     1.8628912072E-02     1.8627177051E-02     1.8625442354E-02     1.8623707980E-02
     1.8621973929E-02     1.8620240201E-02     1.8618506796E-02     1.8616773713E-02
     1.8615040953E-02     1.8613308516E-02     1.8611576401E-02     1.8609844608E-02
     1.8608113137E-02     1.8606381989E-02     1.8604651163E-02     1.8602920659E-02
     1.8601190476E-02     1.8599460616E-02     1.8597731077E-02     1.8596001860E-02
     1.8594272964E-02     1.8592544390E-02     1.8590816137E-02     1.8589088205E-02
     1.8587360595E-02     1.8585633305E-02     1.8583906337E-02     1.8582179690E-02
     1.8580453363E-02     1.8578727357E-02     1.8577001672E-02     1.8575276307E-02
     1.8573551263E-02     1.8571826539E-02     1.8570102136E-02     1.8568378052E-02
     1.8566654289E-02     1.8564930846E-02     1.8563207722E-02     1.8561484919E-02
     1.8559762435E-02     1.8558040271E-02     1.8556318426E-02     1.8554596901E-02
     1.8552875696E-02     1.8551154809E-02     1.8549434242E-02     1.8547713994E-02
     1.8545994065E-02     1.8544274455E-02     1.8542555164E-02     1.8540836192E-02
     1.8539117538E-02     1.8537399203E-02     1.8535681186E-02     1.8533963488E-02
     1.8532246108E-02     1.8530529047E-02     1.8528812303E-02     1.8527095878E-02
     1.8525379770E-02     1.8523663981E-02     1.8521948509E-02     1.8520233355E-02
     1.8518518519E-02     1.8516804000E-02     1.8515089798E-02     1.8513375914E-02
     1.8511662347E-02     1.8509949098E-02     1.8508236165E-02     1.8506523550E-02
     1.8504811251E-02     1.8503099269E-02     1.8501387604E-02     1.8499676256E-02
     1.8497965224E-02     1.8496254508E-02     1.8494544109E-02     1.8492834027E-02
     1.8491124260E-02     1.8489414810E-02     1.8487705676E-02     1.8485996857E-02
     1.8484288355E-02     1.8482580168E-02     1.8480872297E-02     1.8479164742E-02
     1.8477457502E-02     1.8475750577E-02     1.8474043968E-02     1.8472337674E-02
     1.8470631696E-02     1.8468926032E-02     1.8467220683E-02     1.8465515650E-02
     1.8463810931E-02     1.8462106526E-02     1.8460402437E-02     1.8458698662E-02
     1.8456995201E-02     1.8455292055E-02     1.8453589223E-02     1.8451886705E-02
     1.8450184502E-02     1.8448482612E-02     1.8446781037E-02     1.8445079775E-02
     1.8443378827E-02     1.8441678193E-02     1.8439977872E-02     1.8438277865E-02
     1.8436578171E-02     1.8434878791E-02     1.8433179724E-02     1.8431480969E-02
     1.8429782529E-02     1.8428084401E-02     1.8426386586E-02     1.8424689083E-02
     1.8422991894E-02     1.8421295017E-02     1.8419598453E-02     1.8417902201E-02
     1.8416206262E-02     1.8414510634E-02     1.8412815319E-02     1.8411120317E-02
     1.8409425626E-02     1.8407731247E-02     1.8406037180E-02     1.8404343425E-02
     1.8402649982E-02     1.8400956850E-02     1.8399264029E-02     1.8397571521E-02
     1.8395879323E-02     1.8394187437E-02     1.8392495862E-02     1.8390804598E-02
     1.8389113645E-02     1.8387423003E-02     1.8385732671E-02     1.8384042651E-02
     1.8382352941E-02     1.8380663542E-02     1.8378974453E-02     1.8377285675E-02
     1.8375597207E-02     1.8373909049E-02     1.8372221202E-02     1.8370533664E-02
     1.8368846436E-02     1.8367159519E-02     1.8365472911E-02     1.8363786613E-02
     1.8362100624E-02     1.8360414945E-02     1.8358729576E-02     1.8357044516E-02
     1.8355359765E-02     1.8353675323E-02     1.8351991191E-02     1.8350307368E-02
     1.8348623853E-02     1.8346940648E-02     1.8345257751E-02     1.8343575163E-02
     1.8341892883E-02     1.8340210912E-02     1.8338529250E-02     1.8336847896E-02
     1.8335166850E-02     1.8333486112E-02     1.8331805683E-02     1.8330125561E-02
     1.8328445748E-02     1.8326766242E-02     1.8325087044E-02     1.8323408154E-02
     1.8321729571E-02     1.8320051296E-02     1.8318373328E-02     1.8316695668E-02
     1.8315018315E-02     1.8313341269E-02     1.8311664530E-02     1.8309988099E-02
     1.8308311974E-02     1.8306636156E-02     1.8304960644E-02     1.8303285440E-02
     1.8301610542E-02     1.8299935950E-02     1.8298261665E-02     1.8296587686E-02
     1.8294914014E-02     1.8293240648E-02     1.8291567587E-02     1.8289894833E-02
     1.8288222385E-02     1.8286550242E-02     1.8284878406E-02     1.8283206874E-02
     1.8281535649E-02     1.8279864729E-02     1.8278194114E-02     1.8276523805E-02
     1.8274853801E-02     1.8273184102E-02     1.8271514709E-02     1.8269845620E-02
     1.8268176836E-02     1.8266508357E-02     1.8264840183E-02     1.8263172313E-02
     1.8261504748E-02     1.8259837487E-02     1.8258170531E-02     1.8256503880E-02
     1.8254837532E-02     1.8253171489E-02     1.8251505749E-02     1.8249840314E-02
     1.8248175182E-02     1.8246510355E-02     1.8244845831E-02     1.8243181611E-02
     1.8241517694E-02     1.8239854081E-02     1.8238190771E-02     1.8236527765E-02
     1.8234865062E-02     1.8233202662E-02     1.8231540565E-02     1.8229878771E-02
     1.8228217280E-02     1.8226556092E-02     1.8224895207E-02     1.8223234624E-02
     1.8221574344E-02     1.8219914366E-02     1.8218254691E-02     1.8216595318E-02
     1.8214936248E-02     1.8213277479E-02     1.8211619013E-02     1.8209960849E-02
     1.8208302986E-02     1.8206645426E-02     1.8204988167E-02     1.8203331210E-02
     1.8201674554E-02     1.8200018200E-02     1.8198362147E-02     1.8196706396E-02
     1.8195050946E-02     1.8193395797E-02     1.8191740950E-02     1.8190086403E-02
     1.8188432157E-02     1.8186778212E-02     1.8185124568E-02     1.8183471225E-02
     1.8181818182E-02     1.8180165440E-02     1.8178512998E-02     1.8176860856E-02
     1.8175209015E-02     1.8173557474E-02     1.8171906233E-02     1.8170255292E-02
     1.8168604651E-02     1.8166954310E-02     1.8165304269E-02     1.8163654527E-02
     1.8162005085E-02     1.8160355943E-02     1.8158707100E-02     1.8157058557E-02
     1.8155410312E-02     1.8153762367E-02     1.8152114721E-02     1.8150467375E-02
     1.8148820327E-02     1.8147173578E-02     1.8145527128E-02     1.8143880976E-02
     1.8142235123E-02     1.8140589569E-02     1.8138944313E-02     1.8137299356E-02
     1.8135654697E-02     1.8134010336E-02     1.8132366274E-02     1.8130722509E-02
     1.8129079043E-02     1.8127435874E-02     1.8125793003E-02     1.8124150430E-02
     1.8122508155E-02     1.8120866177E-02     1.8119224497E-02     1.8117583114E-02
     1.8115942029E-02     1.8114301241E-02     1.8112660750E-02     1.8111020556E-02
     1.8109380659E-02     1.8107741059E-02     1.8106101756E-02     1.8104462750E-02
     1.8102824041E-02     1.8101185628E-02     1.8099547511E-02     1.8097909691E-02
     1.8096272168E-02     1.8094634941E-02     1.8092998010E-02     1.8091361375E-02
     1.8089725036E-02     1.8088088993E-02     1.8086453247E-02     1.8084817795E-02
     1.8083182640E-02     1.8081547780E-02     1.8079913216E-02     1.8078278948E-02
     1.8076644975E-02     1.8075011297E-02     1.8073377914E-02     1.8071744827E-02
     1.8070112035E-02     1.8068479537E-02     1.8066847335E-02     1.8065215428E-02
     1.8063583815E-02     1.8061952497E-02     1.8060321474E-02     1.8058690745E-02
     1.8057060311E-02     1.8055430171E-02     1.8053800325E-02     1.8052170774E-02
     1.8050541516E-02     1.8048912553E-02     1.8047283884E-02     1.8045655508E-02
     1.8044027427E-02     1.8042399639E-02     1.8040772145E-02     1.8039144945E-02
     1.8037518038E-02     1.8035891424E-02     1.8034265104E-02     1.8032639077E-02
     1.8031013343E-02     1.8029387902E-02     1.8027762755E-02     1.8026137900E-02
     1.8024513338E-02     1.8022889069E-02     1.8021265093E-02     1.8019641409E-02
     1.8018018018E-02     1.8016394919E-02     1.8014772113E-02     1.8013149599E-02
     1.8011527378E-02     1.8009905448E-02     1.8008283811E-02     1.8006662465E-02
     1.8005041412E-02     1.8003420650E-02     1.8001800180E-02     1.8000180002E-02
     1.7998560115E-02     1.7996940520E-02     1.7995321216E-02     1.7993702204E-02
     1.7992083483E-02     1.7990465054E-02     1.7988846915E-02     1.7987229067E-02
     1.7985611511E-02     1.7983994245E-02     1.7982377270E-02     1.7980760586E-02
     1.7979144193E-02     1.7977528090E-02     1.7975912278E-02     1.7974296756E-02
     1.7972681524E-02     1.7971066583E-02     1.7969451932E-02     1.7967837571E-02
     1.7966223500E-02     1.7964609719E-02     1.7962996228E-02     1.7961383026E-02
     1.7959770115E-02     1.7958157493E-02     1.7956545161E-02     1.7954933118E-02
     1.7953321364E-02     1.7951709900E-02     1.7950098726E-02     1.7948487840E-02
     1.7946877243E-02     1.7945266936E-02     1.7943656917E-02     1.7942047188E-02
     1.7940437747E-02     1.7938828594E-02     1.7937219731E-02     1.7935611156E-02
     1.7934002869E-02     1.7932394871E-02     1.7930787162E-02     1.7929179740E-02
     1.7927572607E-02     1.7925965761E-02     1.7924359204E-02     1.7922752935E-02
     1.7921146953E-02     1.7919541260E-02     1.7917935854E-02     1.7916330735E-02
     1.7914725905E-02     1.7913121361E-02     1.7911517105E-02     1.7909913137E-02
     1.7908309456E-02     1.7906706061E-02     1.7905102954E-02     1.7903500134E-02
     1.7901897601E-02     1.7900295355E-02     1.7898693395E-02     1.7897091723E-02
     1.7895490336E-02     1.7893889237E-02     1.7892288424E-02     1.7890687897E-02
     1.7889087657E-02     1.7887487702E-02     1.7885888034E-02     1.7884288652E-02
     1.7882689557E-02     1.7881090747E-02     1.7879492222E-02     1.7877893984E-02
     1.7876296031E-02     1.7874698364E-02     1.7873100983E-02     1.7871503887E-02
     1.7869907076E-02     1.7868310551E-02     1.7866714311E-02     1.7865118356E-02
     1.7863522687E-02     1.7861927302E-02     1.7860332202E-02     1.7858737387E-02
     1.7857142857E-02     1.7855548612E-02     1.7853954651E-02     1.7852360975E-02
     1.7850767583E-02     1.7849174476E-02     1.7847581653E-02     1.7845989114E-02
     1.7844396859E-02     1.7842804889E-02     1.7841213202E-02     1.7839621800E-02
     1.7838030681E-02     1.7836439847E-02     1.7834849296E-02     1.7833259028E-02
     1.7831669044E-02     1.7830079344E-02     1.7828489927E-02     1.7826900793E-02
     1.7825311943E-02     1.7823723376E-02     1.7822135092E-02     1.7820547091E-02
     1.7818959373E-02     1.7817371938E-02     1.7815784785E-02     1.7814197916E-02
     1.7812611329E-02     1.7811025024E-02     1.7809439003E-02     1.7807853263E-02
     1.7806267806E-02     1.7804682632E-02     1.7803097739E-02     1.7801513129E-02
     1.7799928800E-02     1.7798344754E-02     1.7796760989E-02     1.7795177507E-02
     1.7793594306E-02     1.7792011387E-02     1.7790428749E-02     1.7788846393E-02
     1.7787264319E-02     1.7785682526E-02     1.7784101014E-02     1.7782519783E-02
     1.7780938834E-02     1.7779358165E-02     1.7777777778E-02     1.7776197671E-02
     1.7774617846E-02     1.7773038301E-02     1.7771459037E-02     1.7769880053E-02
     1.7768301350E-02     1.7766722928E-02     1.7765144786E-02     1.7763566924E-02
     1.7761989343E-02     1.7760412042E-02     1.7758835020E-02     1.7757258279E-02
     1.7755681818E-02     1.7754105637E-02     1.7752529735E-02     1.7750954114E-02
     1.7749378772E-02     1.7747803709E-02     1.7746228926E-02     1.7744654423E-02
     1.7743080199E-02     1.7741506254E-02     1.7739932588E-02     1.7738359202E-02
     1.7736786094E-02     1.7735213266E-02     1.7733640716E-02     1.7732068446E-02
     1.7730496454E-02     1.7728924741E-02     1.7727353306E-02     1.7725782150E-02
     1.7724211273E-02     1.7722640673E-02     1.7721070353E-02     1.7719500310E-02
     1.7717930546E-02     1.7716361059E-02     1.7714791851E-02     1.7713222921E-02
     1.7711654269E-02     1.7710085894E-02     1.7708517797E-02     1.7706949978E-02
     1.7705382436E-02     1.7703815172E-02     1.7702248186E-02     1.7700681476E-02
     1.7699115044E-02     1.7697548889E-02     1.7695983012E-02     1.7694417411E-02
     1.7692852088E-02     1.7691287041E-02     1.7689722271E-02     1.7688157778E-02
     1.7686593562E-02     1.7685029622E-02     1.7683465959E-02     1.7681902573E-02
     1.7680339463E-02     1.7678776629E-02     1.7677214071E-02     1.7675651790E-02
     1.7674089784E-02     1.7672528055E-02     1.7670966602E-02     1.7669405425E-02
     1.7667844523E-02     1.7666283897E-02     1.7664723547E-02     1.7663163473E-02
     1.7661603674E-02     1.7660044150E-02     1.7658484902E-02     1.7656925929E-02
     1.7655367232E-02     1.7653808809E-02     1.7652250662E-02     1.7650692790E-02
     1.7649135192E-02     1.7647577870E-02     1.7646020822E-02     1.7644464049E-02
     1.7642907551E-02     1.7641351328E-02     1.7639795378E-02     1.7638239704E-02
     1.7636684303E-02     1.7635129177E-02     1.7633574326E-02     1.7632019748E-02
     1.7630465444E-02     1.7628911415E-02     1.7627357659E-02     1.7625804177E-02
     1.7624250969E-02     1.7622698035E-02     1.7621145374E-02     1.7619592987E-02
     1.7618040874E-02     1.7616489034E-02     1.7614937467E-02     1.7613386173E-02
     1.7611835153E-02     1.7610284406E-02     1.7608733932E-02     1.7607183731E-02
     1.7605633803E-02     1.7604084148E-02     1.7602534765E-02     1.7600985655E-02
     1.7599436818E-02     1.7597888253E-02     1.7596339961E-02     1.7594791942E-02
     1.7593244194E-02     1.7591696719E-02     1.7590149516E-02     1.7588602586E-02
     1.7587055927E-02     1.7585509540E-02     1.7583963425E-02     1.7582417582E-02
     1.7580872011E-02     1.7579326712E-02     1.7577781684E-02     1.7576236928E-02
     1.7574692443E-02     1.7573148230E-02     1.7571604287E-02     1.7570060617E-02
     1.7568517217E-02     1.7566974089E-02     1.7565431231E-02     1.7563888645E-02
     1.7562346329E-02     1.7560804285E-02     1.7559262511E-02     1.7557721008E-02
     1.7556179775E-02     1.7554638813E-02     1.7553098122E-02     1.7551557701E-02
     1.7550017550E-02     1.7548477670E-02     1.7546938059E-02     1.7545398719E-02
     1.7543859649E-02     1.7542320849E-02     1.7540782319E-02     1.7539244059E-02
     1.7537706068E-02     1.7536168347E-02     1.7534630896E-02     1.7533093714E-02
     1.7531556802E-02     1.7530020160E-02     1.7528483786E-02     1.7526947682E-02
     1.7525411847E-02     1.7523876281E-02     1.7522340985E-02     1.7520805957E-02
     1.7519271198E-02     1.7517736708E-02     1.7516202487E-02     1.7514668535E-02
     1.7513134851E-02     1.7511601436E-02     1.7510068289E-02     1.7508535411E-02
     1.7507002801E-02     1.7505470460E-02     1.7503938386E-02     1.7502406581E-02
     1.7500875044E-02     1.7499343775E-02     1.7497812773E-02     1.7496282040E-02
     1.7494751575E-02     1.7493221377E-02     1.7491691447E-02     1.7490161784E-02
     1.7488632389E-02     1.7487103261E-02     1.7485574401E-02     1.7484045808E-02
     1.7482517483E-02     1.7480989424E-02     1.7479461633E-02     1.7477934108E-02
     1.7476406851E-02     1.7474879860E-02     1.7473353136E-02     1.7471826679E-02
     1.7470300489E-02     1.7468774565E-02     1.7467248908E-02     1.7465723518E-02
     1.7464198393E-02     1.7462673535E-02     1.7461148944E-02     1.7459624618E-02
     1.7458100559E-02     1.7456576765E-02     1.7455053238E-02     1.7453529976E-02
     1.7452006981E-02     1.7450484251E-02     1.7448961787E-02     1.7447439588E-02
     1.7445917655E-02     1.7444395988E-02     1.7442874586E-02     1.7441353449E-02
     1.7439832578E-02     1.7438311971E-02     1.7436791630E-02     1.7435271554E-02
     1.7433751743E-02     1.7432232197E-02     1.7430712916E-02     1.7429193900E-02
     1.7427675148E-02     1.7426156661E-02     1.7424638439E-02     1.7423120481E-02
     1.7421602787E-02     1.7420085358E-02     1.7418568194E-02     1.7417051293E-02
     1.7415534657E-02     1.7414018285E-02     1.7412502177E-02     1.7410986332E-02
     1.7409470752E-02     1.7407955436E-02     1.7406440383E-02     1.7404925594E-02
     1.7403411069E-02     1.7401896807E-02     1.7400382808E-02     1.7398869074E-02
     1.7397355602E-02     1.7395842394E-02     1.7394329449E-02     1.7392816767E-02
     1.7391304348E-02     1.7389792192E-02     1.7388280299E-02     1.7386768669E-02
     1.7385257302E-02     1.7383746197E-02     1.7382235355E-02     1.7380724776E-02
     1.7379214460E-02     1.7377704405E-02     1.7376194613E-02     1.7374685084E-02
     1.7373175817E-02     1.7371666811E-02     1.7370158068E-02     1.7368649587E-02
     1.7367141369E-02     1.7365633411E-02     1.7364125716E-02     1.7362618283E-02
     1.7361111111E-02     1.7359604201E-02     1.7358097553E-02     1.7356591165E-02
     1.7355085040E-02     1.7353579176E-02     1.7352073573E-02     1.7350568231E-02
     1.7349063151E-02     1.7347558331E-02     1.7346053773E-02     1.7344549475E-02
     1.7343045439E-02     1.7341541663E-02     1.7340038148E-02     1.7338534894E-02
     1.7337031900E-02     1.7335529167E-02     1.7334026694E-02     1.7332524482E-02
     1.7331022530E-02     1.7329520839E-02     1.7328019407E-02     1.7326518236E-02
     1.7325017325E-02     1.7323516674E-02     1.7322016283E-02     1.7320516151E-02
     1.7319016280E-02     1.7317516668E-02     1.7316017316E-02     1.7314518224E-02
     1.7313019391E-02     1.7311520817E-02     1.7310022503E-02     1.7308524448E-02
     1.7307026653E-02     1.7305529117E-02     1.7304031839E-02     1.7302534821E-02
     1.7301038062E-02     1.7299541562E-02     1.7298045321E-02     1.7296549338E-02
     1.7295053615E-02     1.7293558150E-02     1.7292062943E-02     1.7290567995E-02
     1.7289073306E-02     1.7287578875E-02     1.7286084702E-02     1.7284590787E-02
     1.7283097131E-02     1.7281603733E-02     1.7280110593E-02     1.7278617711E-02
     1.7277125086E-02     1.7275632720E-02     1.7274140612E-02     1.7272648761E-02
     1.7271157168E-02     1.7269665832E-02     1.7268174754E-02     1.7266683933E-02
     1.7265193370E-02     1.7263703064E-02     1.7262213016E-02     1.7260723224E-02
     1.7259233690E-02     1.7257744413E-02     1.7256255393E-02     1.7254766629E-02
     1.7253278123E-02     1.7251789873E-02     1.7250301880E-02     1.7248814144E-02
     1.7247326664E-02     1.7245839441E-02     1.7244352475E-02     1.7242865764E-02
     1.7241379310E-02     1.7239893113E-02     1.7238407171E-02     1.7236921486E-02
     1.7235436057E-02     1.7233950883E-02     1.7232465966E-02     1.7230981304E-02
     1.7229496899E-02     1.7228012749E-02     1.7226528854E-02     1.7225045216E-02
     1.7223561833E-02     1.7222078705E-02     1.7220595833E-02     1.7219113216E-02
     1.7217630854E-02     1.7216148748E-02     1.7214666896E-02     1.7213185300E-02
     1.7211703959E-02     1.7210222872E-02     1.7208742041E-02     1.7207261464E-02
     1.7205781142E-02     1.7204301075E-02     1.7202821263E-02     1.7201341705E-02
     1.7199862401E-02     1.7198383352E-02     1.7196904557E-02     1.7195426017E-02
     1.7193947730E-02     1.7192469698E-02     1.7190991920E-02     1.7189514396E-02
     1.7188037126E-02     1.7186560110E-02     1.7185083348E-02     1.7183606839E-02
     1.7182130584E-02     1.7180654583E-02     1.7179178835E-02     1.7177703341E-02
     1.7176228100E-02     1.7174753113E-02     1.7173278379E-02     1.7171803898E-02
     1.7170329670E-02     1.7168855696E-02     1.7167381974E-02     1.7165908506E-02
     1.7164435290E-02     1.7162962327E-02     1.7161489617E-02     1.7160017160E-02
     1.7158544955E-02     1.7157073003E-02     1.7155601304E-02     1.7154129857E-02
     1.7152658662E-02     1.7151187720E-02     1.7149717030E-02     1.7148246592E-02
     1.7146776406E-02     1.7145306472E-02     1.7143836791E-02     1.7142367361E-02
     1.7140898183E-02     1.7139429257E-02     1.7137960583E-02     1.7136492160E-02
     1.7135023989E-02     1.7133556070E-02     1.7132088402E-02     1.7130620985E-02
     1.7129153820E-02     1.7127686906E-02     1.7126220243E-02     1.7124753832E-02
     1.7123287671E-02     1.7121821762E-02     1.7120356103E-02     1.7118890696E-02
     1.7117425539E-02     1.7115960633E-02     1.7114495978E-02     1.7113031574E-02
     1.7111567420E-02     1.7110103516E-02     1.7108639863E-02     1.7107176461E-02
     1.7105713308E-02     1.7104250406E-02     1.7102787754E-02     1.7101325353E-02
     1.7099863201E-02     1.7098401299E-02     1.7096939648E-02     1.7095478246E-02
     1.7094017094E-02     1.7092556192E-02     1.7091095539E-02     1.7089635136E-02
     1.7088174983E-02     1.7086715079E-02     1.7085255425E-02     1.7083796019E-02
     1.7082336864E-02     1.7080877957E-02     1.7079419300E-02     1.7077960891E-02
     1.7076502732E-02     1.7075044822E-02     1.7073587161E-02     1.7072129748E-02
     1.7070672584E-02     1.7069215670E-02     1.7067759003E-02     1.7066302586E-02
     1.7064846416E-02     1.7063390496E-02     1.7061934823E-02     1.7060479399E-02
     1.7059024224E-02     1.7057569296E-02     1.7056114617E-02     1.7054660186E-02
     1.7053206003E-02     1.7051752068E-02     1.7050298380E-02     1.7048844941E-02
     1.7047391749E-02     1.7045938805E-02     1.7044486109E-02     1.7043033660E-02
     1.7041581459E-02     1.7040129505E-02     1.7038677799E-02     1.7037226340E-02
     1.7035775128E-02     1.7034324163E-02     1.7032873446E-02     1.7031422975E-02
     1.7029972752E-02     1.7028522776E-02     1.7027073046E-02     1.7025623563E-02
     1.7024174328E-02     1.7022725338E-02     1.7021276596E-02     1.7019828100E-02
     1.7018379850E-02     1.7016931847E-02     1.7015484091E-02     1.7014036580E-02
     1.7012589316E-02     1.7011142298E-02     1.7009695526E-02     1.7008249001E-02
     1.7006802721E-02     1.7005356687E-02     1.7003910900E-02     1.7002465357E-02
     1.7001020061E-02     1.6999575011E-02     1.6998130206E-02     1.6996685646E-02
     1.6995241332E-02     1.6993797264E-02     1.6992353441E-02     1.6990909863E-02
     1.6989466531E-02     1.6988023443E-02     1.6986580601E-02     1.6985138004E-02
     1.6983695652E-02     1.6982253545E-02     1.6980811683E-02     1.6979370065E-02
     1.6977928693E-02     1.6976487565E-02     1.6975046681E-02     1.6973606043E-02
     1.6972165648E-02     1.6970725499E-02     1.6969285593E-02     1.6967845932E-02
     1.6966406515E-02     1.6964967342E-02     1.6963528414E-02     1.6962089729E-02
     1.6960651289E-02     1.6959213093E-02     1.6957775140E-02     1.6956337431E-02
     1.6954899966E-02     1.6953462745E-02     1.6952025767E-02     1.6950589033E-02
     1.6949152542E-02     1.6947716295E-02     1.6946280291E-02     1.6944844531E-02
     1.6943409014E-02     1.6941973740E-02     1.6940538709E-02     1.6939103921E-02
     1.6937669377E-02     1.6936235075E-02     1.6934801016E-02     1.6933367200E-02
     1.6931933627E-02     1.6930500296E-02     1.6929067208E-02     1.6927634363E-02
     1.6926201760E-02     1.6924769400E-02     1.6923337282E-02     1.6921905407E-02
     1.6920473773E-02     1.6919042382E-02     1.6917611233E-02     1.6916180326E-02
     1.6914749662E-02     1.6913319239E-02     1.6911889058E-02     1.6910459119E-02
     1.6909029422E-02     1.6907599966E-02     1.6906170752E-02     1.6904741780E-02
     1.6903313049E-02     1.6901884560E-02     1.6900456312E-02     1.6899028306E-02
     1.6897600541E-02     1.6896173017E-02     1.6894745734E-02     1.6893318692E-02
     1.6891891892E-02     1.6890465332E-02     1.6889039014E-02     1.6887612936E-02
     1.6886187099E-02     1.6884761503E-02     1.6883336147E-02     1.6881911032E-02
     1.6880486158E-02     1.6879061524E-02     1.6877637131E-02     1.6876212978E-02
     1.6874789065E-02     1.6873365393E-02     1.6871941961E-02     1.6870518768E-02
     1.6869095816E-02     1.6867673104E-02     1.6866250632E-02     1.6864828400E-02
     1.6863406408E-02     1.6861984656E-02     1.6860563143E-02     1.6859141870E-02
     1.6857720836E-02     1.6856300042E-02     1.6854879488E-02     1.6853459172E-02
     1.6852039097E-02     1.6850619260E-02     1.6849199663E-02     1.6847780305E-02
     1.6846361186E-02     1.6844942306E-02     1.6843523665E-02     1.6842105263E-02
     1.6840687100E-02     1.6839269176E-02     1.6837851490E-02     1.6836434043E-02
     1.6835016835E-02     1.6833599865E-02     1.6832183134E-02     1.6830766641E-02
     1.6829350387E-02     1.6827934371E-02     1.6826518593E-02     1.6825103054E-02
     1.6823687752E-02     1.6822272689E-02     1.6820857864E-02     1.6819443276E-02
     1.6818028927E-02     1.6816614815E-02     1.6815200942E-02     1.6813787306E-02
     1.6812373907E-02     1.6810960746E-02     1.6809547823E-02     1.6808135137E-02
     1.6806722689E-02     1.6805310478E-02     1.6803898504E-02     1.6802486768E-02
     1.6801075269E-02     1.6799664007E-02     1.6798252982E-02     1.6796842194E-02
     1.6795431643E-02     1.6794021328E-02     1.6792611251E-02     1.6791201410E-02
     1.6789791807E-02     1.6788382439E-02     1.6786973309E-02     1.6785564415E-02
     1.6784155757E-02     1.6782747336E-02     1.6781339151E-02     1.6779931202E-02
     1.6778523490E-02     1.6777116014E-02     1.6775708774E-02     1.6774301770E-02
     1.6772895002E-02     1.6771488470E-02     1.6770082173E-02     1.6768676113E-02
     1.6767270288E-02     1.6765864699E-02     1.6764459346E-02     1.6763054228E-02
     1.6761649346E-02     1.6760244700E-02     1.6758840288E-02     1.6757436112E-02
     1.6756032172E-02     1.6754628466E-02     1.6753224996E-02     1.6751821761E-02
     1.6750418760E-02     1.6749015995E-02     1.6747613465E-02     1.6746211170E-02
     1.6744809109E-02     1.6743407283E-02     1.6742005692E-02     1.6740604336E-02
     1.6739203214E-02     1.6737802327E-02     1.6736401674E-02     1.6735001255E-02
     1.6733601071E-02     1.6732201121E-02     1.6730801405E-02     1.6729401924E-02
     1.6728002676E-02     1.6726603663E-02     1.6725204884E-02     1.6723806338E-02
     1.6722408027E-02     1.6721009949E-02     1.6719612105E-02     1.6718214495E-02
     1.6716817118E-02     1.6715419975E-02     1.6714023065E-02     1.6712626389E-02
     1.6711229947E-02     1.6709833737E-02     1.6708437761E-02     1.6707042018E-02
     1.6705646509E-02     1.6704251232E-02     1.6702856188E-02     1.6701461378E-02
     1.6700066800E-02     1.6698672456E-02     1.6697278344E-02     1.6695884464E-02
     1.6694490818E-02     1.6693097404E-02     1.6691704223E-02     1.6690311274E-02
     1.6688918558E-02     1.6687526074E-02     1.6686133823E-02     1.6684741804E-02
     1.6683350017E-02     1.6681958462E-02     1.6680567139E-02     1.6679176049E-02
     1.6677785190E-02     1.6676394563E-02     1.6675004169E-02     1.6673614006E-02
     1.6672224075E-02     1.6670834375E-02     1.6669444907E-02     1.6668055671E-02
     1.6666666667E-02
</PP_LOCAL>
 <PP_NONLOCAL>
   <!-- empty: number_of_proj = 0 in PP_HEADER, so no PP_BETA.* projectors. -->
   <!-- PP_DIJ stub kept so pseudopod's upf2.hpp parser doesn't null-deref -->
   <!-- root_node_->first_node("PP_NONLOCAL")->first_node("PP_DIJ"): line 159. -->
   <PP_DIJ type="real" size="0" columns="4">
   </PP_DIJ>
 </PP_NONLOCAL>
 <PP_PSWFC>
 </PP_PSWFC>
 <PP_RHOATOM type="real"  size="12001" columns="4">
     0.0000000000E+00     2.4794341471E-04     9.9091894057E-04     2.2263680628E-03
     3.9500456984E-03     6.1560486329E-03     8.8368548808E-03     1.1983373531E-02
     1.5585004525E-02     1.9629707710E-02     2.4104080427E-02     2.8993442803E-02
     3.4281929867E-02     3.9952589544E-02     4.5987485557E-02     5.2367804247E-02
     5.9073964300E-02     6.6085728409E-02     7.3382315882E-02     8.0942515274E-02
     8.8744796138E-02     9.6767419086E-02     1.0498854333E-01     1.1338633103E-01
     1.2193904783E-01     1.3062515893E-01     1.3942342031E-01     1.4831296458E-01
     1.5727338117E-01     1.6628479066E-01     1.7532791282E-01     1.8438412840E-01
     1.9343553473E-01     2.0246499428E-01     2.1145617765E-01     2.2039359948E-01
     2.2926264851E-01     2.3804961085E-01     2.4674168841E-01     2.5532701021E-01
     2.6379463827E-01     2.7213456885E-01     2.8033772768E-01     2.8839596035E-01
     2.9630201805E-01     3.0404953869E-01     3.1163302393E-01     3.1904781286E-01
     3.2629005077E-01     3.3335665407E-01     3.4024527527E-01     3.4695426557E-01
     3.5348262690E-01     3.5982997159E-01     3.6599648316E-01     3.7198285339E-01
     3.7779025613E-01     3.8342027746E-01     3.8887488964E-01     3.9415637933E-01
     3.9926732777E-01     4.0421053528E-01     4.0898900016E-01     4.1360586662E-01
     4.1806437563E-01     4.2236784139E-01     4.2651960765E-01     4.3052300623E-01
     4.3438133902E-01     4.3809784793E-01     4.4167568640E-01     4.4511789734E-01
     4.4842740211E-01     4.5160698378E-01     4.5465927654E-01     4.5758675943E-01
     4.6039174939E-01     4.6307640307E-01     4.6564271888E-01     4.6809254111E-01
     4.7042756695E-01     4.7264935579E-01     4.7475934017E-01     4.7675883847E-01
     4.7864906862E-01     4.8043116285E-01     4.8210618286E-01     4.8367513530E-01
     4.8513898716E-01     4.8649868075E-01     4.8775514807E-01     4.8890932424E-01
     4.8996215983E-01     4.9091463191E-01     4.9176775358E-01     4.9252257613E-01
     4.9318021185E-01     4.9374182540E-01     4.9420863911E-01     4.9458193531E-01
     4.9486305613E-01     4.9505340201E-01     4.9515442062E-01     4.9516762730E-01
     4.9509458085E-01     4.9493687901E-01     4.9469615451E-01     4.9437406196E-01
     4.9397228868E-01     4.9349254046E-01     4.9293652709E-01     4.9230595866E-01
     4.9160253929E-01     4.9082798382E-01     4.8998398626E-01     4.8907222166E-01
     4.8809434735E-01     4.8705202061E-01     4.8594687199E-01     4.8478050140E-01
     4.8355451132E-01     4.8227048421E-01     4.8092996944E-01     4.7953450212E-01
     4.7808561574E-01     4.7658480457E-01     4.7503353906E-01     4.7343329913E-01
     4.7178551873E-01     4.7009160857E-01     4.6835299066E-01     4.6657103314E-01
     4.6474709403E-01     4.6288253276E-01     4.6097864623E-01     4.5903674889E-01
     4.5705812988E-01     4.5504401645E-01     4.5299568348E-01     4.5091433129E-01
     4.4880115759E-01     4.4665736345E-01     4.4448406520E-01     4.4228244437E-01
     4.4005359528E-01     4.3779862199E-01     4.3551861800E-01     4.3321460984E-01
     4.3088768122E-01     4.2853880795E-01     4.2616903012E-01     4.2377930732E-01
     4.2137061147E-01     4.1894389471E-01     4.1650006236E-01     4.1404005773E-01
     4.1156472312E-01     4.0907498816E-01     4.0657164288E-01     4.0405558773E-01
     4.0152758537E-01     3.9898848719E-01     3.9643903481E-01     3.9388003353E-01
     3.9131220208E-01     3.8873630343E-01     3.8615303095E-01     3.8356310956E-01
     3.8096720441E-01     3.7836600704E-01     3.7576015114E-01     3.7315029989E-01
     3.7053705201E-01     3.6792104757E-01     3.6530284664E-01     3.6268307155E-01
     3.6006223998E-01     3.5744096187E-01     3.5481970890E-01     3.5219908368E-01
     3.4957950873E-01     3.4696157326E-01     3.4434567985E-01     3.4173237209E-01
     3.3912205408E-01     3.3651521191E-01     3.3391226115E-01     3.3131362397E-01
     3.2871973492E-01     3.2613094713E-01     3.2354771963E-01     3.2097033407E-01
     3.1839925340E-01     3.1583475732E-01     3.1327723928E-01     3.1072701520E-01
     3.0818439374E-01     3.0564973754E-01     3.0312326636E-01     3.0060536753E-01
     2.9809624731E-01     2.9559622996E-01     2.9310557269E-01     2.9062449750E-01
     2.8815332279E-01     2.8569218837E-01     2.8324141465E-01     2.8080118028E-01
     2.7837169267E-01     2.7595321500E-01     2.7354583751E-01     2.7114985674E-01
     2.6876540189E-01     2.6639264465E-01     2.6403181011E-01     2.6168295407E-01
     2.5934632864E-01     2.5702204381E-01     2.5471021239E-01     2.5241103884E-01
     2.5012456127E-01     2.4785096372E-01     2.4559036883E-01     2.4334280687E-01
     2.4110847696E-01     2.3888742000E-01     2.3667972467E-01     2.3448553732E-01
     2.3230484695E-01     2.3013779622E-01     2.2798447164E-01     2.2584484162E-01
     2.2371907224E-01     2.2160718423E-01     2.1950918491E-01     2.1742520274E-01
     2.1535521910E-01     2.1329927590E-01     2.1125746569E-01     2.0922973692E-01
     2.0721615973E-01     2.0521679417E-01     2.0323156191E-01     2.0126055392E-01
     1.9930380230E-01     1.9736120736E-01     1.9543287344E-01     1.9351880846E-01
     1.9161889992E-01     1.8973325450E-01     1.8786185993E-01     1.8600460254E-01
     1.8416157699E-01     1.8233276208E-01     1.8051803620E-01     1.7871748583E-01
     1.7693108606E-01     1.7515870043E-01     1.7340041110E-01     1.7165618863E-01
     1.6992589269E-01     1.6820958701E-01     1.6650724345E-01     1.6481872662E-01
     1.6314406985E-01     1.6148325248E-01     1.5983614921E-01     1.5820275480E-01
     1.5658306061E-01     1.5497695691E-01     1.5338439180E-01     1.5180537259E-01
     1.5023981072E-01     1.4868760030E-01     1.4714876754E-01     1.4562325032E-01
     1.4411088316E-01     1.4261171261E-01     1.4112567980E-01     1.3965263949E-01
     1.3819257554E-01     1.3674545831E-01     1.3531117665E-01     1.3388963650E-01
     1.3248084168E-01     1.3108472136E-01     1.2970109889E-01     1.2833001076E-01
     1.2697139008E-01     1.2562509939E-01     1.2429108335E-01     1.2296931894E-01
     1.2165971717E-01     1.2036212317E-01     1.1907655698E-01     1.1780294648E-01
     1.1654114810E-01     1.1529111045E-01     1.1405280258E-01     1.1282613765E-01
     1.1161095024E-01     1.1040725990E-01     1.0921499300E-01     1.0803401854E-01
     1.0686425527E-01     1.0570568262E-01     1.0455822148E-01     1.0342170539E-01
     1.0229612790E-01     1.0118143008E-01     1.0007751189E-01     9.8984230691E-02
     9.7901591614E-02     9.6829518883E-02     9.5767884597E-02     9.4716602554E-02
     9.3675651345E-02     9.2644952595E-02     9.1624357062E-02     9.0613825474E-02
     8.9613313452E-02     8.8622740963E-02     8.7641943554E-02     8.6670918562E-02
     8.5709603256E-02     8.4757913158E-02     8.3815684928E-02     8.2882931486E-02
     8.1959580376E-02     8.1045538566E-02     8.0140663081E-02     7.9244958367E-02
     7.8358352085E-02     7.7480747512E-02     7.6612013484E-02     7.5752149816E-02
     7.4901084880E-02     7.4058722878E-02     7.3224935982E-02     7.2399723308E-02
     7.1583014448E-02     7.0774718909E-02     6.9974704043E-02     6.9182972050E-02
     6.8399454182E-02     6.7624069401E-02     6.6856672591E-02     6.6097272493E-02
     6.5345802386E-02     6.4602189287E-02     6.3866284591E-02     6.3138090627E-02
     6.2417548303E-02     6.1704587356E-02     6.0999076474E-02     6.0300987164E-02
     5.9610277067E-02     5.8926878874E-02     5.8250682553E-02     5.7581621736E-02
     5.6919673704E-02     5.6264774278E-02     5.5616838504E-02     5.4975756187E-02
     5.4341526243E-02     5.3714087760E-02     5.3093374958E-02     5.2479257060E-02
     5.1871728058E-02     5.1270739451E-02     5.0676229134E-02     5.0088097362E-02
     4.9506279485E-02     4.8930756928E-02     4.8361471290E-02     4.7798357672E-02
     4.7241288817E-02     4.6690276084E-02     4.6145264773E-02     4.5606196203E-02
     4.5072972721E-02     4.4545541444E-02     4.4023881815E-02     4.3507939101E-02
     4.2997654834E-02     4.2492905991E-02     4.1993703269E-02     4.1499997132E-02
     4.1011733250E-02     4.0528830544E-02     4.0051217904E-02     3.9578886841E-02
     3.9111787057E-02     3.8649865000E-02     3.8193021326E-02     3.7741231625E-02
     3.7294467263E-02     3.6852678829E-02     3.6415813870E-02     3.5983760247E-02
     3.5556530198E-02     3.5134078994E-02     3.4716358396E-02     3.4303305080E-02
     3.3894835682E-02     3.3490952616E-02     3.3091611670E-02     3.2696766006E-02
     3.2306344980E-02     3.1920288091E-02     3.1538589081E-02     3.1161205154E-02
     3.0788091067E-02     3.0419172782E-02     3.0054404780E-02     2.9693775584E-02
     2.9337243976E-02     2.8984766463E-02     2.8636269166E-02     2.8291714111E-02
     2.7951087999E-02     2.7614351317E-02     2.7281462438E-02     2.6952350866E-02
     2.6626979290E-02     2.6305335782E-02     2.5987382630E-02     2.5673080163E-02
     2.5362364216E-02     2.5055191839E-02     2.4751555386E-02     2.4451419017E-02
     2.4154745071E-02     2.3861478444E-02     2.3571564847E-02     2.3285003479E-02
     2.3001760410E-02     2.2721800031E-02     2.2445078789E-02     2.2171526061E-02
     2.1901150013E-02     2.1633918647E-02     2.1369798413E-02     2.1108754197E-02
     2.0850710883E-02     2.0595671221E-02     2.0343610458E-02     2.0094497098E-02
     1.9848298202E-02     1.9604955310E-02     1.9364442566E-02     1.9126750436E-02
     1.8891849457E-02     1.8659708833E-02     1.8430288872E-02     1.8203531688E-02
     1.7979444001E-02     1.7757998342E-02     1.7539166017E-02     1.7322917097E-02
     1.7109191383E-02     1.6897980399E-02     1.6689269114E-02     1.6483030879E-02
     1.6279237912E-02     1.6077852629E-02     1.5878825755E-02     1.5682162720E-02
     1.5487838857E-02     1.5295828455E-02     1.5106104755E-02     1.4918616206E-02
     1.4733348857E-02     1.4550292886E-02     1.4369424576E-02     1.4190719249E-02
     1.4014151128E-02     1.3839659221E-02     1.3667256683E-02     1.3496921706E-02
     1.3328631601E-02     1.3162362793E-02     1.2998080875E-02     1.2835748138E-02
     1.2675368275E-02     1.2516920489E-02     1.2360383178E-02     1.2205733920E-02
     1.2052932833E-02     1.1901959252E-02     1.1752810004E-02     1.1605465350E-02
     1.1459904808E-02     1.1316107146E-02     1.1174029833E-02     1.1033663349E-02
     1.0895000275E-02     1.0758021954E-02     1.0622709048E-02     1.0489041530E-02
     1.0356976695E-02     1.0226510813E-02     1.0097634680E-02     9.9703307378E-03
     9.8445807986E-03     9.7203660474E-03     9.5976457522E-03     9.4764172062E-03
     9.3566716576E-03     9.2383926415E-03     9.1215631207E-03     9.0061654822E-03
     8.8921628626E-03     8.7795493594E-03     8.6683186485E-03     8.5584553503E-03
     8.4499435627E-03     8.3427668572E-03     8.2368939208E-03     8.1323119604E-03
     8.0290187790E-03     7.9270000634E-03     7.8262410234E-03     7.7267263895E-03
     7.6284318873E-03     7.5313346684E-03     7.4354380585E-03     7.3407287840E-03
     7.2471931373E-03     7.1548169739E-03     7.0635843287E-03     6.9734597403E-03
     6.8844530956E-03     6.7965521281E-03     6.7097441767E-03     6.6240161831E-03
     6.5393546899E-03     6.4557301699E-03     6.3731393266E-03     6.2915776433E-03
     6.2110334645E-03     6.1314947748E-03     6.0529491959E-03     5.9753783320E-03
     5.8987597471E-03     5.8230986296E-03     5.7483842858E-03     5.6746056953E-03
     5.6017515092E-03     5.5298100485E-03     5.4587541386E-03     5.3885834526E-03
     5.3192932870E-03     5.2508735670E-03     5.1833139204E-03     5.1166036764E-03
     5.0507287806E-03     4.9856653379E-03     4.9214203547E-03     4.8579846503E-03
     4.7953487751E-03     4.7335030098E-03     4.6724373639E-03     4.6121326368E-03
     4.5525789599E-03     4.4937772672E-03     4.4357189771E-03     4.3783952646E-03
     4.3217970601E-03     4.2659150477E-03     4.2107269600E-03     4.1562326781E-03
     4.1024289394E-03     4.0493077557E-03     3.9968609188E-03     3.9450799988E-03
     3.8939563432E-03     3.8434664007E-03     3.7936159723E-03     3.7443993547E-03
     3.6958091420E-03     3.6478377293E-03     3.6004773117E-03     3.5537198828E-03
     3.5075421006E-03     3.4619523711E-03     3.4169441116E-03     3.3725104825E-03
     3.3286444647E-03     3.2853388583E-03     3.2425862821E-03     3.2003648485E-03
     3.1586827452E-03     3.1175338565E-03     3.0769118893E-03     3.0368103888E-03
     2.9972227375E-03     2.9581421546E-03     2.9195492532E-03     2.8814496160E-03
     2.8438387299E-03     2.8067108257E-03     0.0000000000E+00     0.0000000000E+00
     0.0000000000E+00     0.0000000000E+00     0.0000000000E+00     0.0000000000E+00
     0.0000000000E+00     0.0000000000E+00     0.0000000000E+00     0.0000000000E+00
     0.0000000000E+00     0.0000000000E+00     0.0000000000E+00     0.0000000000E+00
     0.0000000000E+00     0.0000000000E+00     0.0000000000E+00     0.0000000000E+00
     0.0000000000E+00     0.0000000000E+00     0.0000000000E+00     0.0000000000E+00
     0.0000000000E+00     0.0000000000E+00     0.0000000000E+00     0.0000000000E+00
     0.0000000000E+00     0.0000000000E+00     0.0000000000E+00     0.0000000000E+00
     0.0000000000E+00     0.0000000000E+00     0.0000000000E+00     0.0000000000E+00
     0.0000000000E+00     0.0000000000E+00     0.0000000000E+00     0.0000000000E+00
     0.0000000000E+00     0.0000000000E+00     0.0000000000E+00     0.0000000000E+00
     0.0000000000E+00     0.0000000000E+00     0.0000000000E+00     0.0000000000E+00
     0.0000000000E+00     0.0000000000E+00     0.0000000000E+00     0.0000000000E+00
     0.0000000000E+00     0.0000000000E+00     0.0000000000E+00     0.0000000000E+00
     0.0000000000E+00     0.0000000000E+00     0.0000000000E+00     0.0000000000E+00
     0.0000000000E+00     0.0000000000E+00     0.0000000000E+00     0.0000000000E+00
     0.0000000000E+00     0.0000000000E+00     0.0000000000E+00     0.0000000000E+00
     0.0000000000E+00     0.0000000000E+00     0.0000000000E+00     0.0000000000E+00
     0.0000000000E+00     0.0000000000E+00     0.0000000000E+00     0.0000000000E+00
     0.0000000000E+00     0.0000000000E+00     0.0000000000E+00     0.0000000000E+00
     0.0000000000E+00     0.0000000000E+00     0.0000000000E+00     0.0000000000E+00
     0.0000000000E+00     0.0000000000E+00     0.0000000000E+00     0.0000000000E+00
     0.0000000000E+00     0.0000000000E+00     0.0000000000E+00     0.0000000000E+00
     0.0000000000E+00     0.0000000000E+00     0.0000000000E+00     0.0000000000E+00
     0.0000000000E+00     0.0000000000E+00     0.0000000000E+00     0.0000000000E+00
     0.0000000000E+00     0.0000000000E+00     0.0000000000E+00     0.0000000000E+00
     0.0000000000E+00     0.0000000000E+00     0.0000000000E+00     0.0000000000E+00
     0.0000000000E+00     0.0000000000E+00     0.0000000000E+00     0.0000000000E+00
     0.0000000000E+00     0.0000000000E+00     0.0000000000E+00     0.0000000000E+00
     0.0000000000E+00     0.0000000000E+00     0.0000000000E+00     0.0000000000E+00
     0.0000000000E+00     0.0000000000E+00     0.0000000000E+00     0.0000000000E+00
     0.0000000000E+00     0.0000000000E+00     0.0000000000E+00     0.0000000000E+00
     0.0000000000E+00     0.0000000000E+00     0.0000000000E+00     0.0000000000E+00
     0.0000000000E+00     0.0000000000E+00     0.0000000000E+00     0.0000000000E+00
     0.0000000000E+00     0.0000000000E+00     0.0000000000E+00     0.0000000000E+00
     0.0000000000E+00     0.0000000000E+00     0.0000000000E+00     0.0000000000E+00
     0.0000000000E+00     0.0000000000E+00     0.0000000000E+00     0.0000000000E+00
     0.0000000000E+00     0.0000000000E+00     0.0000000000E+00     0.0000000000E+00
     0.0000000000E+00     0.0000000000E+00     0.0000000000E+00     0.0000000000E+00
     0.0000000000E+00     0.0000000000E+00     0.0000000000E+00     0.0000000000E+00
     0.0000000000E+00     0.0000000000E+00     0.0000000000E+00     0.0000000000E+00
     0.0000000000E+00     0.0000000000E+00     0.0000000000E+00     0.0000000000E+00
     0.0000000000E+00     0.0000000000E+00     0.0000000000E+00     0.0000000000E+00
     0.0000000000E+00     0.0000000000E+00     0.0000000000E+00     0.0000000000E+00
     0.0000000000E+00     0.0000000000E+00     0.0000000000E+00     0.0000000000E+00
     0.0000000000E+00     0.0000000000E+00     0.0000000000E+00     0.0000000000E+00
     0.0000000000E+00     0.0000000000E+00     0.0000000000E+00     0.0000000000E+00
     0.0000000000E+00     0.0000000000E+00     0.0000000000E+00     0.0000000000E+00
     0.0000000000E+00     0.0000000000E+00     0.0000000000E+00     0.0000000000E+00
     0.0000000000E+00     0.0000000000E+00     0.0000000000E+00     0.0000000000E+00
     0.0000000000E+00     0.0000000000E+00     0.0000000000E+00     0.0000000000E+00
     0.0000000000E+00     0.0000000000E+00     0.0000000000E+00     0.0000000000E+00
     0.0000000000E+00     0.0000000000E+00     0.0000000000E+00     0.0000000000E+00
     0.0000000000E+00     0.0000000000E+00     0.0000000000E+00     0.0000000000E+00
     0.0000000000E+00     0.0000000000E+00     0.0000000000E+00     0.0000000000E+00
     0.0000000000E+00     0.0000000000E+00     0.0000000000E+00     0.0000000000E+00
     0.0000000000E+00     0.0000000000E+00     0.0000000000E+00     0.0000000000E+00
     0.0000000000E+00     0.0000000000E+00     0.0000000000E+00     0.0000000000E+00
     0.0000000000E+00     0.0000000000E+00     0.0000000000E+00     0.0000000000E+00
     0.0000000000E+00     0.0000000000E+00     0.0000000000E+00     0.0000000000E+00
     0.0000000000E+00     0.0000000000E+00     0.0000000000E+00     0.0000000000E+00
     0.0000000000E+00     0.0000000000E+00     0.0000000000E+00     0.0000000000E+00
     0.0000000000E+00     0.0000000000E+00     0.0000000000E+00     0.0000000000E+00
     0.0000000000E+00     0.0000000000E+00     0.0000000000E+00     0.0000000000E+00
     0.0000000000E+00     0.0000000000E+00     0.0000000000E+00     0.0000000000E+00
     0.0000000000E+00     0.0000000000E+00     0.0000000000E+00     0.0000000000E+00
     0.0000000000E+00     0.0000000000E+00     0.0000000000E+00     0.0000000000E+00
     0.0000000000E+00     0.0000000000E+00     0.0000000000E+00     0.0000000000E+00
     0.0000000000E+00     0.0000000000E+00     0.0000000000E+00     0.0000000000E+00
     0.0000000000E+00     0.0000000000E+00     0.0000000000E+00     0.0000000000E+00
     0.0000000000E+00     0.0000000000E+00     0.0000000000E+00     0.0000000000E+00
     0.0000000000E+00     0.0000000000E+00     0.0000000000E+00     0.0000000000E+00
     0.0000000000E+00     0.0000000000E+00     0.0000000000E+00     0.0000000000E+00
     0.0000000000E+00     0.0000000000E+00     0.0000000000E+00     0.0000000000E+00
     0.0000000000E+00     0.0000000000E+00     0.0000000000E+00     0.0000000000E+00
     0.0000000000E+00     0.0000000000E+00     0.0000000000E+00     0.0000000000E+00
     0.0000000000E+00     0.0000000000E+00     0.0000000000E+00     0.0000000000E+00
     0.0000000000E+00     0.0000000000E+00     0.0000000000E+00     0.0000000000E+00
     0.0000000000E+00     0.0000000000E+00     0.0000000000E+00     0.0000000000E+00
     0.0000000000E+00     0.0000000000E+00     0.0000000000E+00     0.0000000000E+00
     0.0000000000E+00     0.0000000000E+00     0.0000000000E+00     0.0000000000E+00
     0.0000000000E+00     0.0000000000E+00     0.0000000000E+00     0.0000000000E+00
     0.0000000000E+00     0.0000000000E+00     0.0000000000E+00     0.0000000000E+00
     0.0000000000E+00     0.0000000000E+00     0.0000000000E+00     0.0000000000E+00
     0.0000000000E+00     0.0000000000E+00     0.0000000000E+00     0.0000000000E+00
     0.0000000000E+00     0.0000000000E+00     0.0000000000E+00     0.0000000000E+00
     0.0000000000E+00     0.0000000000E+00     0.0000000000E+00     0.0000000000E+00
     0.0000000000E+00     0.0000000000E+00     0.0000000000E+00     0.0000000000E+00
     0.0000000000E+00     0.0000000000E+00     0.0000000000E+00     0.0000000000E+00
     0.0000000000E+00     0.0000000000E+00     0.0000000000E+00     0.0000000000E+00
     0.0000000000E+00     0.0000000000E+00     0.0000000000E+00     0.0000000000E+00
     0.0000000000E+00     0.0000000000E+00     0.0000000000E+00     0.0000000000E+00
     0.0000000000E+00     0.0000000000E+00     0.0000000000E+00     0.0000000000E+00
     0.0000000000E+00     0.0000000000E+00     0.0000000000E+00     0.0000000000E+00
     0.0000000000E+00     0.0000000000E+00     0.0000000000E+00     0.0000000000E+00
     0.0000000000E+00     0.0000000000E+00     0.0000000000E+00     0.0000000000E+00
     0.0000000000E+00     0.0000000000E+00     0.0000000000E+00     0.0000000000E+00
     0.0000000000E+00     0.0000000000E+00     0.0000000000E+00     0.0000000000E+00
     0.0000000000E+00     0.0000000000E+00     0.0000000000E+00     0.0000000000E+00
     0.0000000000E+00     0.0000000000E+00     0.0000000000E+00     0.0000000000E+00
     0.0000000000E+00     0.0000000000E+00     0.0000000000E+00     0.0000000000E+00
     0.0000000000E+00     0.0000000000E+00     0.0000000000E+00     0.0000000000E+00
     0.0000000000E+00     0.0000000000E+00     0.0000000000E+00     0.0000000000E+00
     0.0000000000E+00     0.0000000000E+00     0.0000000000E+00     0.0000000000E+00
     0.0000000000E+00     0.0000000000E+00     0.0000000000E+00     0.0000000000E+00
     0.0000000000E+00     0.0000000000E+00     0.0000000000E+00     0.0000000000E+00
     0.0000000000E+00     0.0000000000E+00     0.0000000000E+00     0.0000000000E+00
     0.0000000000E+00     0.0000000000E+00     0.0000000000E+00     0.0000000000E+00
     0.0000000000E+00     0.0000000000E+00     0.0000000000E+00     0.0000000000E+00
     0.0000000000E+00     0.0000000000E+00     0.0000000000E+00     0.0000000000E+00
     0.0000000000E+00     0.0000000000E+00     0.0000000000E+00     0.0000000000E+00
     0.0000000000E+00     0.0000000000E+00     0.0000000000E+00     0.0000000000E+00
     0.0000000000E+00     0.0000000000E+00     0.0000000000E+00     0.0000000000E+00
     0.0000000000E+00     0.0000000000E+00     0.0000000000E+00     0.0000000000E+00
     0.0000000000E+00     0.0000000000E+00     0.0000000000E+00     0.0000000000E+00
     0.0000000000E+00     0.0000000000E+00     0.0000000000E+00     0.0000000000E+00
     0.0000000000E+00     0.0000000000E+00     0.0000000000E+00     0.0000000000E+00
     0.0000000000E+00     0.0000000000E+00     0.0000000000E+00     0.0000000000E+00
     0.0000000000E+00     0.0000000000E+00     0.0000000000E+00     0.0000000000E+00
     0.0000000000E+00     0.0000000000E+00     0.0000000000E+00     0.0000000000E+00
     0.0000000000E+00     0.0000000000E+00     0.0000000000E+00     0.0000000000E+00
     0.0000000000E+00     0.0000000000E+00     0.0000000000E+00     0.0000000000E+00
     0.0000000000E+00     0.0000000000E+00     0.0000000000E+00     0.0000000000E+00
     0.0000000000E+00     0.0000000000E+00     0.0000000000E+00     0.0000000000E+00
     0.0000000000E+00     0.0000000000E+00     0.0000000000E+00     0.0000000000E+00
     0.0000000000E+00     0.0000000000E+00     0.0000000000E+00     0.0000000000E+00
     0.0000000000E+00     0.0000000000E+00     0.0000000000E+00     0.0000000000E+00
     0.0000000000E+00     0.0000000000E+00     0.0000000000E+00     0.0000000000E+00
     0.0000000000E+00     0.0000000000E+00     0.0000000000E+00     0.0000000000E+00
     0.0000000000E+00     0.0000000000E+00     0.0000000000E+00     0.0000000000E+00
     0.0000000000E+00     0.0000000000E+00     0.0000000000E+00     0.0000000000E+00
     0.0000000000E+00     0.0000000000E+00     0.0000000000E+00     0.0000000000E+00
     0.0000000000E+00     0.0000000000E+00     0.0000000000E+00     0.0000000000E+00
     0.0000000000E+00     0.0000000000E+00     0.0000000000E+00     0.0000000000E+00
     0.0000000000E+00     0.0000000000E+00     0.0000000000E+00     0.0000000000E+00
     0.0000000000E+00     0.0000000000E+00     0.0000000000E+00     0.0000000000E+00
     0.0000000000E+00     0.0000000000E+00     0.0000000000E+00     0.0000000000E+00
     0.0000000000E+00     0.0000000000E+00     0.0000000000E+00     0.0000000000E+00
     0.0000000000E+00     0.0000000000E+00     0.0000000000E+00     0.0000000000E+00
     0.0000000000E+00     0.0000000000E+00     0.0000000000E+00     0.0000000000E+00
     0.0000000000E+00     0.0000000000E+00     0.0000000000E+00     0.0000000000E+00
     0.0000000000E+00     0.0000000000E+00     0.0000000000E+00     0.0000000000E+00
     0.0000000000E+00     0.0000000000E+00     0.0000000000E+00     0.0000000000E+00
     0.0000000000E+00     0.0000000000E+00     0.0000000000E+00     0.0000000000E+00
     0.0000000000E+00     0.0000000000E+00     0.0000000000E+00     0.0000000000E+00
     0.0000000000E+00     0.0000000000E+00     0.0000000000E+00     0.0000000000E+00
     0.0000000000E+00     0.0000000000E+00     0.0000000000E+00     0.0000000000E+00
     0.0000000000E+00     0.0000000000E+00     0.0000000000E+00     0.0000000000E+00
     0.0000000000E+00     0.0000000000E+00     0.0000000000E+00     0.0000000000E+00
     0.0000000000E+00     0.0000000000E+00     0.0000000000E+00     0.0000000000E+00
     0.0000000000E+00     0.0000000000E+00     0.0000000000E+00     0.0000000000E+00
     0.0000000000E+00     0.0000000000E+00     0.0000000000E+00     0.0000000000E+00
     0.0000000000E+00     0.0000000000E+00     0.0000000000E+00     0.0000000000E+00
     0.0000000000E+00     0.0000000000E+00     0.0000000000E+00     0.0000000000E+00
     0.0000000000E+00     0.0000000000E+00     0.0000000000E+00     0.0000000000E+00
     0.0000000000E+00     0.0000000000E+00     0.0000000000E+00     0.0000000000E+00
     0.0000000000E+00     0.0000000000E+00     0.0000000000E+00     0.0000000000E+00
     0.0000000000E+00     0.0000000000E+00     0.0000000000E+00     0.0000000000E+00
     0.0000000000E+00     0.0000000000E+00     0.0000000000E+00     0.0000000000E+00
     0.0000000000E+00     0.0000000000E+00     0.0000000000E+00     0.0000000000E+00
     0.0000000000E+00     0.0000000000E+00     0.0000000000E+00     0.0000000000E+00
     0.0000000000E+00     0.0000000000E+00     0.0000000000E+00     0.0000000000E+00
     0.0000000000E+00     0.0000000000E+00     0.0000000000E+00     0.0000000000E+00
     0.0000000000E+00     0.0000000000E+00     0.0000000000E+00     0.0000000000E+00
     0.0000000000E+00     0.0000000000E+00     0.0000000000E+00     0.0000000000E+00
     0.0000000000E+00     0.0000000000E+00     0.0000000000E+00     0.0000000000E+00
     0.0000000000E+00     0.0000000000E+00     0.0000000000E+00     0.0000000000E+00
     0.0000000000E+00     0.0000000000E+00     0.0000000000E+00     0.0000000000E+00
     0.0000000000E+00     0.0000000000E+00     0.0000000000E+00     0.0000000000E+00
     0.0000000000E+00     0.0000000000E+00     0.0000000000E+00     0.0000000000E+00
     0.0000000000E+00     0.0000000000E+00     0.0000000000E+00     0.0000000000E+00
     0.0000000000E+00     0.0000000000E+00     0.0000000000E+00     0.0000000000E+00
     0.0000000000E+00     0.0000000000E+00     0.0000000000E+00     0.0000000000E+00
     0.0000000000E+00     0.0000000000E+00     0.0000000000E+00     0.0000000000E+00
     0.0000000000E+00     0.0000000000E+00     0.0000000000E+00     0.0000000000E+00
     0.0000000000E+00     0.0000000000E+00     0.0000000000E+00     0.0000000000E+00
     0.0000000000E+00     0.0000000000E+00     0.0000000000E+00     0.0000000000E+00
     0.0000000000E+00     0.0000000000E+00     0.0000000000E+00     0.0000000000E+00
     0.0000000000E+00     0.0000000000E+00     0.0000000000E+00     0.0000000000E+00
     0.0000000000E+00     0.0000000000E+00     0.0000000000E+00     0.0000000000E+00
     0.0000000000E+00     0.0000000000E+00     0.0000000000E+00     0.0000000000E+00
     0.0000000000E+00     0.0000000000E+00     0.0000000000E+00     0.0000000000E+00
     0.0000000000E+00     0.0000000000E+00     0.0000000000E+00     0.0000000000E+00
     0.0000000000E+00     0.0000000000E+00     0.0000000000E+00     0.0000000000E+00
     0.0000000000E+00     0.0000000000E+00     0.0000000000E+00     0.0000000000E+00
     0.0000000000E+00     0.0000000000E+00     0.0000000000E+00     0.0000000000E+00
     0.0000000000E+00     0.0000000000E+00     0.0000000000E+00     0.0000000000E+00
     0.0000000000E+00     0.0000000000E+00     0.0000000000E+00     0.0000000000E+00
     0.0000000000E+00     0.0000000000E+00     0.0000000000E+00     0.0000000000E+00
     0.0000000000E+00     0.0000000000E+00     0.0000000000E+00     0.0000000000E+00
     0.0000000000E+00     0.0000000000E+00     0.0000000000E+00     0.0000000000E+00
     0.0000000000E+00     0.0000000000E+00     0.0000000000E+00     0.0000000000E+00
     0.0000000000E+00     0.0000000000E+00     0.0000000000E+00     0.0000000000E+00
     0.0000000000E+00     0.0000000000E+00     0.0000000000E+00     0.0000000000E+00
     0.0000000000E+00     0.0000000000E+00     0.0000000000E+00     0.0000000000E+00
     0.0000000000E+00     0.0000000000E+00     0.0000000000E+00     0.0000000000E+00
     0.0000000000E+00     0.0000000000E+00     0.0000000000E+00     0.0000000000E+00
     0.0000000000E+00     0.0000000000E+00     0.0000000000E+00     0.0000000000E+00
     0.0000000000E+00     0.0000000000E+00     0.0000000000E+00     0.0000000000E+00
     0.0000000000E+00     0.0000000000E+00     0.0000000000E+00     0.0000000000E+00
     0.0000000000E+00     0.0000000000E+00     0.0000000000E+00     0.0000000000E+00
     0.0000000000E+00     0.0000000000E+00     0.0000000000E+00     0.0000000000E+00
     0.0000000000E+00     0.0000000000E+00     0.0000000000E+00     0.0000000000E+00
     0.0000000000E+00     0.0000000000E+00     0.0000000000E+00     0.0000000000E+00
     0.0000000000E+00     0.0000000000E+00     0.0000000000E+00     0.0000000000E+00
     0.0000000000E+00     0.0000000000E+00     0.0000000000E+00     0.0000000000E+00
     0.0000000000E+00     0.0000000000E+00     0.0000000000E+00     0.0000000000E+00
     0.0000000000E+00     0.0000000000E+00     0.0000000000E+00     0.0000000000E+00
     0.0000000000E+00     0.0000000000E+00     0.0000000000E+00     0.0000000000E+00
     0.0000000000E+00     0.0000000000E+00     0.0000000000E+00     0.0000000000E+00
     0.0000000000E+00     0.0000000000E+00     0.0000000000E+00     0.0000000000E+00
     0.0000000000E+00     0.0000000000E+00     0.0000000000E+00     0.0000000000E+00
     0.0000000000E+00     0.0000000000E+00     0.0000000000E+00     0.0000000000E+00
     0.0000000000E+00     0.0000000000E+00     0.0000000000E+00     0.0000000000E+00
     0.0000000000E+00     0.0000000000E+00     0.0000000000E+00     0.0000000000E+00
     0.0000000000E+00     0.0000000000E+00     0.0000000000E+00     0.0000000000E+00
     0.0000000000E+00     0.0000000000E+00     0.0000000000E+00     0.0000000000E+00
     0.0000000000E+00     0.0000000000E+00     0.0000000000E+00     0.0000000000E+00
     0.0000000000E+00     0.0000000000E+00     0.0000000000E+00     0.0000000000E+00
     0.0000000000E+00     0.0000000000E+00     0.0000000000E+00     0.0000000000E+00
     0.0000000000E+00     0.0000000000E+00     0.0000000000E+00     0.0000000000E+00
     0.0000000000E+00     0.0000000000E+00     0.0000000000E+00     0.0000000000E+00
     0.0000000000E+00     0.0000000000E+00     0.0000000000E+00     0.0000000000E+00
     0.0000000000E+00     0.0000000000E+00     0.0000000000E+00     0.0000000000E+00
     0.0000000000E+00     0.0000000000E+00     0.0000000000E+00     0.0000000000E+00
     0.0000000000E+00     0.0000000000E+00     0.0000000000E+00     0.0000000000E+00
     0.0000000000E+00     0.0000000000E+00     0.0000000000E+00     0.0000000000E+00
     0.0000000000E+00     0.0000000000E+00     0.0000000000E+00     0.0000000000E+00
     0.0000000000E+00     0.0000000000E+00     0.0000000000E+00     0.0000000000E+00
     0.0000000000E+00     0.0000000000E+00     0.0000000000E+00     0.0000000000E+00
     0.0000000000E+00     0.0000000000E+00     0.0000000000E+00     0.0000000000E+00
     0.0000000000E+00     0.0000000000E+00     0.0000000000E+00     0.0000000000E+00
     0.0000000000E+00     0.0000000000E+00     0.0000000000E+00     0.0000000000E+00
     0.0000000000E+00     0.0000000000E+00     0.0000000000E+00     0.0000000000E+00
     0.0000000000E+00     0.0000000000E+00     0.0000000000E+00     0.0000000000E+00
     0.0000000000E+00     0.0000000000E+00     0.0000000000E+00     0.0000000000E+00
     0.0000000000E+00     0.0000000000E+00     0.0000000000E+00     0.0000000000E+00
     0.0000000000E+00     0.0000000000E+00     0.0000000000E+00     0.0000000000E+00
     0.0000000000E+00     0.0000000000E+00     0.0000000000E+00     0.0000000000E+00
     0.0000000000E+00     0.0000000000E+00     0.0000000000E+00     0.0000000000E+00
     0.0000000000E+00     0.0000000000E+00     0.0000000000E+00     0.0000000000E+00
     0.0000000000E+00     0.0000000000E+00     0.0000000000E+00     0.0000000000E+00
     0.0000000000E+00     0.0000000000E+00     0.0000000000E+00     0.0000000000E+00
     0.0000000000E+00     0.0000000000E+00     0.0000000000E+00     0.0000000000E+00
     0.0000000000E+00     0.0000000000E+00     0.0000000000E+00     0.0000000000E+00
     0.0000000000E+00     0.0000000000E+00     0.0000000000E+00     0.0000000000E+00
     0.0000000000E+00     0.0000000000E+00     0.0000000000E+00     0.0000000000E+00
     0.0000000000E+00     0.0000000000E+00     0.0000000000E+00     0.0000000000E+00
     0.0000000000E+00     0.0000000000E+00     0.0000000000E+00     0.0000000000E+00
     0.0000000000E+00     0.0000000000E+00     0.0000000000E+00     0.0000000000E+00
     0.0000000000E+00     0.0000000000E+00     0.0000000000E+00     0.0000000000E+00
     0.0000000000E+00     0.0000000000E+00     0.0000000000E+00     0.0000000000E+00
     0.0000000000E+00     0.0000000000E+00     0.0000000000E+00     0.0000000000E+00
     0.0000000000E+00     0.0000000000E+00     0.0000000000E+00     0.0000000000E+00
     0.0000000000E+00     0.0000000000E+00     0.0000000000E+00     0.0000000000E+00
     0.0000000000E+00     0.0000000000E+00     0.0000000000E+00     0.0000000000E+00
     0.0000000000E+00     0.0000000000E+00     0.0000000000E+00     0.0000000000E+00
     0.0000000000E+00     0.0000000000E+00     0.0000000000E+00     0.0000000000E+00
     0.0000000000E+00     0.0000000000E+00     0.0000000000E+00     0.0000000000E+00
     0.0000000000E+00     0.0000000000E+00     0.0000000000E+00     0.0000000000E+00
     0.0000000000E+00     0.0000000000E+00     0.0000000000E+00     0.0000000000E+00
     0.0000000000E+00     0.0000000000E+00     0.0000000000E+00     0.0000000000E+00
     0.0000000000E+00     0.0000000000E+00     0.0000000000E+00     0.0000000000E+00
     0.0000000000E+00     0.0000000000E+00     0.0000000000E+00     0.0000000000E+00
     0.0000000000E+00     0.0000000000E+00     0.0000000000E+00     0.0000000000E+00
     0.0000000000E+00     0.0000000000E+00     0.0000000000E+00     0.0000000000E+00
     0.0000000000E+00     0.0000000000E+00     0.0000000000E+00     0.0000000000E+00
     0.0000000000E+00     0.0000000000E+00     0.0000000000E+00     0.0000000000E+00
     0.0000000000E+00     0.0000000000E+00     0.0000000000E+00     0.0000000000E+00
     0.0000000000E+00     0.0000000000E+00     0.0000000000E+00     0.0000000000E+00
     0.0000000000E+00     0.0000000000E+00     0.0000000000E+00     0.0000000000E+00
     0.0000000000E+00     0.0000000000E+00     0.0000000000E+00     0.0000000000E+00
     0.0000000000E+00     0.0000000000E+00     0.0000000000E+00     0.0000000000E+00
     0.0000000000E+00     0.0000000000E+00     0.0000000000E+00     0.0000000000E+00
     0.0000000000E+00     0.0000000000E+00     0.0000000000E+00     0.0000000000E+00
     0.0000000000E+00     0.0000000000E+00     0.0000000000E+00     0.0000000000E+00
     0.0000000000E+00     0.0000000000E+00     0.0000000000E+00     0.0000000000E+00
     0.0000000000E+00     0.0000000000E+00     0.0000000000E+00     0.0000000000E+00
     0.0000000000E+00     0.0000000000E+00     0.0000000000E+00     0.0000000000E+00
     0.0000000000E+00     0.0000000000E+00     0.0000000000E+00     0.0000000000E+00
     0.0000000000E+00     0.0000000000E+00     0.0000000000E+00     0.0000000000E+00
     0.0000000000E+00     0.0000000000E+00     0.0000000000E+00     0.0000000000E+00
     0.0000000000E+00     0.0000000000E+00     0.0000000000E+00     0.0000000000E+00
     0.0000000000E+00     0.0000000000E+00     0.0000000000E+00     0.0000000000E+00
     0.0000000000E+00     0.0000000000E+00     0.0000000000E+00     0.0000000000E+00
     0.0000000000E+00     0.0000000000E+00     0.0000000000E+00     0.0000000000E+00
     0.0000000000E+00     0.0000000000E+00     0.0000000000E+00     0.0000000000E+00
     0.0000000000E+00     0.0000000000E+00     0.0000000000E+00     0.0000000000E+00
     0.0000000000E+00     0.0000000000E+00     0.0000000000E+00     0.0000000000E+00
     0.0000000000E+00     0.0000000000E+00     0.0000000000E+00     0.0000000000E+00
     0.0000000000E+00     0.0000000000E+00     0.0000000000E+00     0.0000000000E+00
     0.0000000000E+00     0.0000000000E+00     0.0000000000E+00     0.0000000000E+00
     0.0000000000E+00     0.0000000000E+00     0.0000000000E+00     0.0000000000E+00
     0.0000000000E+00     0.0000000000E+00     0.0000000000E+00     0.0000000000E+00
     0.0000000000E+00     0.0000000000E+00     0.0000000000E+00     0.0000000000E+00
     0.0000000000E+00     0.0000000000E+00     0.0000000000E+00     0.0000000000E+00
     0.0000000000E+00     0.0000000000E+00     0.0000000000E+00     0.0000000000E+00
     0.0000000000E+00     0.0000000000E+00     0.0000000000E+00     0.0000000000E+00
     0.0000000000E+00     0.0000000000E+00     0.0000000000E+00     0.0000000000E+00
     0.0000000000E+00     0.0000000000E+00     0.0000000000E+00     0.0000000000E+00
     0.0000000000E+00     0.0000000000E+00     0.0000000000E+00     0.0000000000E+00
     0.0000000000E+00     0.0000000000E+00     0.0000000000E+00     0.0000000000E+00
     0.0000000000E+00     0.0000000000E+00     0.0000000000E+00     0.0000000000E+00
     0.0000000000E+00     0.0000000000E+00     0.0000000000E+00     0.0000000000E+00
     0.0000000000E+00     0.0000000000E+00     0.0000000000E+00     0.0000000000E+00
     0.0000000000E+00     0.0000000000E+00     0.0000000000E+00     0.0000000000E+00
     0.0000000000E+00     0.0000000000E+00     0.0000000000E+00     0.0000000000E+00
     0.0000000000E+00     0.0000000000E+00     0.0000000000E+00     0.0000000000E+00
     0.0000000000E+00     0.0000000000E+00     0.0000000000E+00     0.0000000000E+00
     0.0000000000E+00     0.0000000000E+00     0.0000000000E+00     0.0000000000E+00
     0.0000000000E+00     0.0000000000E+00     0.0000000000E+00     0.0000000000E+00
     0.0000000000E+00     0.0000000000E+00     0.0000000000E+00     0.0000000000E+00
     0.0000000000E+00     0.0000000000E+00     0.0000000000E+00     0.0000000000E+00
     0.0000000000E+00     0.0000000000E+00     0.0000000000E+00     0.0000000000E+00
     0.0000000000E+00     0.0000000000E+00     0.0000000000E+00     0.0000000000E+00
     0.0000000000E+00     0.0000000000E+00     0.0000000000E+00     0.0000000000E+00
     0.0000000000E+00     0.0000000000E+00     0.0000000000E+00     0.0000000000E+00
     0.0000000000E+00     0.0000000000E+00     0.0000000000E+00     0.0000000000E+00
     0.0000000000E+00     0.0000000000E+00     0.0000000000E+00     0.0000000000E+00
     0.0000000000E+00     0.0000000000E+00     0.0000000000E+00     0.0000000000E+00
     0.0000000000E+00     0.0000000000E+00     0.0000000000E+00     0.0000000000E+00
     0.0000000000E+00     0.0000000000E+00     0.0000000000E+00     0.0000000000E+00
     0.0000000000E+00     0.0000000000E+00     0.0000000000E+00     0.0000000000E+00
     0.0000000000E+00     0.0000000000E+00     0.0000000000E+00     0.0000000000E+00
     0.0000000000E+00     0.0000000000E+00     0.0000000000E+00     0.0000000000E+00
     0.0000000000E+00     0.0000000000E+00     0.0000000000E+00     0.0000000000E+00
     0.0000000000E+00     0.0000000000E+00     0.0000000000E+00     0.0000000000E+00
     0.0000000000E+00     0.0000000000E+00     0.0000000000E+00     0.0000000000E+00
     0.0000000000E+00     0.0000000000E+00     0.0000000000E+00     0.0000000000E+00
     0.0000000000E+00     0.0000000000E+00     0.0000000000E+00     0.0000000000E+00
     0.0000000000E+00     0.0000000000E+00     0.0000000000E+00     0.0000000000E+00
     0.0000000000E+00     0.0000000000E+00     0.0000000000E+00     0.0000000000E+00
     0.0000000000E+00     0.0000000000E+00     0.0000000000E+00     0.0000000000E+00
     0.0000000000E+00     0.0000000000E+00     0.0000000000E+00     0.0000000000E+00
     0.0000000000E+00     0.0000000000E+00     0.0000000000E+00     0.0000000000E+00
     0.0000000000E+00     0.0000000000E+00     0.0000000000E+00     0.0000000000E+00
     0.0000000000E+00     0.0000000000E+00     0.0000000000E+00     0.0000000000E+00
     0.0000000000E+00     0.0000000000E+00     0.0000000000E+00     0.0000000000E+00
     0.0000000000E+00     0.0000000000E+00     0.0000000000E+00     0.0000000000E+00
     0.0000000000E+00     0.0000000000E+00     0.0000000000E+00     0.0000000000E+00
     0.0000000000E+00     0.0000000000E+00     0.0000000000E+00     0.0000000000E+00
     0.0000000000E+00     0.0000000000E+00     0.0000000000E+00     0.0000000000E+00
     0.0000000000E+00     0.0000000000E+00     0.0000000000E+00     0.0000000000E+00
     0.0000000000E+00     0.0000000000E+00     0.0000000000E+00     0.0000000000E+00
     0.0000000000E+00     0.0000000000E+00     0.0000000000E+00     0.0000000000E+00
     0.0000000000E+00     0.0000000000E+00     0.0000000000E+00     0.0000000000E+00
     0.0000000000E+00     0.0000000000E+00     0.0000000000E+00     0.0000000000E+00
     0.0000000000E+00     0.0000000000E+00     0.0000000000E+00     0.0000000000E+00
     0.0000000000E+00     0.0000000000E+00     0.0000000000E+00     0.0000000000E+00
     0.0000000000E+00     0.0000000000E+00     0.0000000000E+00     0.0000000000E+00
     0.0000000000E+00     0.0000000000E+00     0.0000000000E+00     0.0000000000E+00
     0.0000000000E+00     0.0000000000E+00     0.0000000000E+00     0.0000000000E+00
     0.0000000000E+00     0.0000000000E+00     0.0000000000E+00     0.0000000000E+00
     0.0000000000E+00     0.0000000000E+00     0.0000000000E+00     0.0000000000E+00
     0.0000000000E+00     0.0000000000E+00     0.0000000000E+00     0.0000000000E+00
     0.0000000000E+00     0.0000000000E+00     0.0000000000E+00     0.0000000000E+00
     0.0000000000E+00     0.0000000000E+00     0.0000000000E+00     0.0000000000E+00
     0.0000000000E+00     0.0000000000E+00     0.0000000000E+00     0.0000000000E+00
     0.0000000000E+00     0.0000000000E+00     0.0000000000E+00     0.0000000000E+00
     0.0000000000E+00     0.0000000000E+00     0.0000000000E+00     0.0000000000E+00
     0.0000000000E+00     0.0000000000E+00     0.0000000000E+00     0.0000000000E+00
     0.0000000000E+00     0.0000000000E+00     0.0000000000E+00     0.0000000000E+00
     0.0000000000E+00     0.0000000000E+00     0.0000000000E+00     0.0000000000E+00
     0.0000000000E+00     0.0000000000E+00     0.0000000000E+00     0.0000000000E+00
     0.0000000000E+00     0.0000000000E+00     0.0000000000E+00     0.0000000000E+00
     0.0000000000E+00     0.0000000000E+00     0.0000000000E+00     0.0000000000E+00
     0.0000000000E+00     0.0000000000E+00     0.0000000000E+00     0.0000000000E+00
     0.0000000000E+00     0.0000000000E+00     0.0000000000E+00     0.0000000000E+00
     0.0000000000E+00     0.0000000000E+00     0.0000000000E+00     0.0000000000E+00
     0.0000000000E+00     0.0000000000E+00     0.0000000000E+00     0.0000000000E+00
     0.0000000000E+00     0.0000000000E+00     0.0000000000E+00     0.0000000000E+00
     0.0000000000E+00     0.0000000000E+00     0.0000000000E+00     0.0000000000E+00
     0.0000000000E+00     0.0000000000E+00     0.0000000000E+00     0.0000000000E+00
     0.0000000000E+00     0.0000000000E+00     0.0000000000E+00     0.0000000000E+00
     0.0000000000E+00     0.0000000000E+00     0.0000000000E+00     0.0000000000E+00
     0.0000000000E+00     0.0000000000E+00     0.0000000000E+00     0.0000000000E+00
     0.0000000000E+00     0.0000000000E+00     0.0000000000E+00     0.0000000000E+00
     0.0000000000E+00     0.0000000000E+00     0.0000000000E+00     0.0000000000E+00
     0.0000000000E+00     0.0000000000E+00     0.0000000000E+00     0.0000000000E+00
     0.0000000000E+00     0.0000000000E+00     0.0000000000E+00     0.0000000000E+00
     0.0000000000E+00     0.0000000000E+00     0.0000000000E+00     0.0000000000E+00
     0.0000000000E+00     0.0000000000E+00     0.0000000000E+00     0.0000000000E+00
     0.0000000000E+00     0.0000000000E+00     0.0000000000E+00     0.0000000000E+00
     0.0000000000E+00     0.0000000000E+00     0.0000000000E+00     0.0000000000E+00
     0.0000000000E+00     0.0000000000E+00     0.0000000000E+00     0.0000000000E+00
     0.0000000000E+00     0.0000000000E+00     0.0000000000E+00     0.0000000000E+00
     0.0000000000E+00     0.0000000000E+00     0.0000000000E+00     0.0000000000E+00
     0.0000000000E+00     0.0000000000E+00     0.0000000000E+00     0.0000000000E+00
     0.0000000000E+00     0.0000000000E+00     0.0000000000E+00     0.0000000000E+00
     0.0000000000E+00     0.0000000000E+00     0.0000000000E+00     0.0000000000E+00
     0.0000000000E+00     0.0000000000E+00     0.0000000000E+00     0.0000000000E+00
     0.0000000000E+00     0.0000000000E+00     0.0000000000E+00     0.0000000000E+00
     0.0000000000E+00     0.0000000000E+00     0.0000000000E+00     0.0000000000E+00
     0.0000000000E+00     0.0000000000E+00     0.0000000000E+00     0.0000000000E+00
     0.0000000000E+00     0.0000000000E+00     0.0000000000E+00     0.0000000000E+00
     0.0000000000E+00     0.0000000000E+00     0.0000000000E+00     0.0000000000E+00
     0.0000000000E+00     0.0000000000E+00     0.0000000000E+00     0.0000000000E+00
     0.0000000000E+00     0.0000000000E+00     0.0000000000E+00     0.0000000000E+00
     0.0000000000E+00     0.0000000000E+00     0.0000000000E+00     0.0000000000E+00
     0.0000000000E+00     0.0000000000E+00     0.0000000000E+00     0.0000000000E+00
     0.0000000000E+00     0.0000000000E+00     0.0000000000E+00     0.0000000000E+00
     0.0000000000E+00     0.0000000000E+00     0.0000000000E+00     0.0000000000E+00
     0.0000000000E+00     0.0000000000E+00     0.0000000000E+00     0.0000000000E+00
     0.0000000000E+00     0.0000000000E+00     0.0000000000E+00     0.0000000000E+00
     0.0000000000E+00     0.0000000000E+00     0.0000000000E+00     0.0000000000E+00
     0.0000000000E+00     0.0000000000E+00     0.0000000000E+00     0.0000000000E+00
     0.0000000000E+00     0.0000000000E+00     0.0000000000E+00     0.0000000000E+00
     0.0000000000E+00     0.0000000000E+00     0.0000000000E+00     0.0000000000E+00
     0.0000000000E+00     0.0000000000E+00     0.0000000000E+00     0.0000000000E+00
     0.0000000000E+00     0.0000000000E+00     0.0000000000E+00     0.0000000000E+00
     0.0000000000E+00     0.0000000000E+00     0.0000000000E+00     0.0000000000E+00
     0.0000000000E+00     0.0000000000E+00     0.0000000000E+00     0.0000000000E+00
     0.0000000000E+00     0.0000000000E+00     0.0000000000E+00     0.0000000000E+00
     0.0000000000E+00     0.0000000000E+00     0.0000000000E+00     0.0000000000E+00
     0.0000000000E+00     0.0000000000E+00     0.0000000000E+00     0.0000000000E+00
     0.0000000000E+00     0.0000000000E+00     0.0000000000E+00     0.0000000000E+00
     0.0000000000E+00     0.0000000000E+00     0.0000000000E+00     0.0000000000E+00
     0.0000000000E+00     0.0000000000E+00     0.0000000000E+00     0.0000000000E+00
     0.0000000000E+00     0.0000000000E+00     0.0000000000E+00     0.0000000000E+00
     0.0000000000E+00     0.0000000000E+00     0.0000000000E+00     0.0000000000E+00
     0.0000000000E+00     0.0000000000E+00     0.0000000000E+00     0.0000000000E+00
     0.0000000000E+00     0.0000000000E+00     0.0000000000E+00     0.0000000000E+00
     0.0000000000E+00     0.0000000000E+00     0.0000000000E+00     0.0000000000E+00
     0.0000000000E+00     0.0000000000E+00     0.0000000000E+00     0.0000000000E+00
     0.0000000000E+00     0.0000000000E+00     0.0000000000E+00     0.0000000000E+00
     0.0000000000E+00     0.0000000000E+00     0.0000000000E+00     0.0000000000E+00
     0.0000000000E+00     0.0000000000E+00     0.0000000000E+00     0.0000000000E+00
     0.0000000000E+00     0.0000000000E+00     0.0000000000E+00     0.0000000000E+00
     0.0000000000E+00     0.0000000000E+00     0.0000000000E+00     0.0000000000E+00
     0.0000000000E+00     0.0000000000E+00     0.0000000000E+00     0.0000000000E+00
     0.0000000000E+00     0.0000000000E+00     0.0000000000E+00     0.0000000000E+00
     0.0000000000E+00     0.0000000000E+00     0.0000000000E+00     0.0000000000E+00
     0.0000000000E+00     0.0000000000E+00     0.0000000000E+00     0.0000000000E+00
     0.0000000000E+00     0.0000000000E+00     0.0000000000E+00     0.0000000000E+00
     0.0000000000E+00     0.0000000000E+00     0.0000000000E+00     0.0000000000E+00
     0.0000000000E+00     0.0000000000E+00     0.0000000000E+00     0.0000000000E+00
     0.0000000000E+00     0.0000000000E+00     0.0000000000E+00     0.0000000000E+00
     0.0000000000E+00     0.0000000000E+00     0.0000000000E+00     0.0000000000E+00
     0.0000000000E+00     0.0000000000E+00     0.0000000000E+00     0.0000000000E+00
     0.0000000000E+00     0.0000000000E+00     0.0000000000E+00     0.0000000000E+00
     0.0000000000E+00     0.0000000000E+00     0.0000000000E+00     0.0000000000E+00
     0.0000000000E+00     0.0000000000E+00     0.0000000000E+00     0.0000000000E+00
     0.0000000000E+00     0.0000000000E+00     0.0000000000E+00     0.0000000000E+00
     0.0000000000E+00     0.0000000000E+00     0.0000000000E+00     0.0000000000E+00
     0.0000000000E+00     0.0000000000E+00     0.0000000000E+00     0.0000000000E+00
     0.0000000000E+00     0.0000000000E+00     0.0000000000E+00     0.0000000000E+00
     0.0000000000E+00     0.0000000000E+00     0.0000000000E+00     0.0000000000E+00
     0.0000000000E+00     0.0000000000E+00     0.0000000000E+00     0.0000000000E+00
     0.0000000000E+00     0.0000000000E+00     0.0000000000E+00     0.0000000000E+00
     0.0000000000E+00     0.0000000000E+00     0.0000000000E+00     0.0000000000E+00
     0.0000000000E+00     0.0000000000E+00     0.0000000000E+00     0.0000000000E+00
     0.0000000000E+00     0.0000000000E+00     0.0000000000E+00     0.0000000000E+00
     0.0000000000E+00     0.0000000000E+00     0.0000000000E+00     0.0000000000E+00
     0.0000000000E+00     0.0000000000E+00     0.0000000000E+00     0.0000000000E+00
     0.0000000000E+00     0.0000000000E+00     0.0000000000E+00     0.0000000000E+00
     0.0000000000E+00     0.0000000000E+00     0.0000000000E+00     0.0000000000E+00
     0.0000000000E+00     0.0000000000E+00     0.0000000000E+00     0.0000000000E+00
     0.0000000000E+00     0.0000000000E+00     0.0000000000E+00     0.0000000000E+00
     0.0000000000E+00     0.0000000000E+00     0.0000000000E+00     0.0000000000E+00
     0.0000000000E+00     0.0000000000E+00     0.0000000000E+00     0.0000000000E+00
     0.0000000000E+00     0.0000000000E+00     0.0000000000E+00     0.0000000000E+00
     0.0000000000E+00     0.0000000000E+00     0.0000000000E+00     0.0000000000E+00
     0.0000000000E+00     0.0000000000E+00     0.0000000000E+00     0.0000000000E+00
     0.0000000000E+00     0.0000000000E+00     0.0000000000E+00     0.0000000000E+00
     0.0000000000E+00     0.0000000000E+00     0.0000000000E+00     0.0000000000E+00
     0.0000000000E+00     0.0000000000E+00     0.0000000000E+00     0.0000000000E+00
     0.0000000000E+00     0.0000000000E+00     0.0000000000E+00     0.0000000000E+00
     0.0000000000E+00     0.0000000000E+00     0.0000000000E+00     0.0000000000E+00
     0.0000000000E+00     0.0000000000E+00     0.0000000000E+00     0.0000000000E+00
     0.0000000000E+00     0.0000000000E+00     0.0000000000E+00     0.0000000000E+00
     0.0000000000E+00     0.0000000000E+00     0.0000000000E+00     0.0000000000E+00
     0.0000000000E+00     0.0000000000E+00     0.0000000000E+00     0.0000000000E+00
     0.0000000000E+00     0.0000000000E+00     0.0000000000E+00     0.0000000000E+00
     0.0000000000E+00     0.0000000000E+00     0.0000000000E+00     0.0000000000E+00
     0.0000000000E+00     0.0000000000E+00     0.0000000000E+00     0.0000000000E+00
     0.0000000000E+00     0.0000000000E+00     0.0000000000E+00     0.0000000000E+00
     0.0000000000E+00     0.0000000000E+00     0.0000000000E+00     0.0000000000E+00
     0.0000000000E+00     0.0000000000E+00     0.0000000000E+00     0.0000000000E+00
     0.0000000000E+00     0.0000000000E+00     0.0000000000E+00     0.0000000000E+00
     0.0000000000E+00     0.0000000000E+00     0.0000000000E+00     0.0000000000E+00
     0.0000000000E+00     0.0000000000E+00     0.0000000000E+00     0.0000000000E+00
     0.0000000000E+00     0.0000000000E+00     0.0000000000E+00     0.0000000000E+00
     0.0000000000E+00     0.0000000000E+00     0.0000000000E+00     0.0000000000E+00
     0.0000000000E+00     0.0000000000E+00     0.0000000000E+00     0.0000000000E+00
     0.0000000000E+00     0.0000000000E+00     0.0000000000E+00     0.0000000000E+00
     0.0000000000E+00     0.0000000000E+00     0.0000000000E+00     0.0000000000E+00
     0.0000000000E+00     0.0000000000E+00     0.0000000000E+00     0.0000000000E+00
     0.0000000000E+00     0.0000000000E+00     0.0000000000E+00     0.0000000000E+00
     0.0000000000E+00     0.0000000000E+00     0.0000000000E+00     0.0000000000E+00
     0.0000000000E+00     0.0000000000E+00     0.0000000000E+00     0.0000000000E+00
     0.0000000000E+00     0.0000000000E+00     0.0000000000E+00     0.0000000000E+00
     0.0000000000E+00     0.0000000000E+00     0.0000000000E+00     0.0000000000E+00
     0.0000000000E+00     0.0000000000E+00     0.0000000000E+00     0.0000000000E+00
     0.0000000000E+00     0.0000000000E+00     0.0000000000E+00     0.0000000000E+00
     0.0000000000E+00     0.0000000000E+00     0.0000000000E+00     0.0000000000E+00
     0.0000000000E+00     0.0000000000E+00     0.0000000000E+00     0.0000000000E+00
     0.0000000000E+00     0.0000000000E+00     0.0000000000E+00     0.0000000000E+00
     0.0000000000E+00     0.0000000000E+00     0.0000000000E+00     0.0000000000E+00
     0.0000000000E+00     0.0000000000E+00     0.0000000000E+00     0.0000000000E+00
     0.0000000000E+00     0.0000000000E+00     0.0000000000E+00     0.0000000000E+00
     0.0000000000E+00     0.0000000000E+00     0.0000000000E+00     0.0000000000E+00
     0.0000000000E+00     0.0000000000E+00     0.0000000000E+00     0.0000000000E+00
     0.0000000000E+00     0.0000000000E+00     0.0000000000E+00     0.0000000000E+00
     0.0000000000E+00     0.0000000000E+00     0.0000000000E+00     0.0000000000E+00
     0.0000000000E+00     0.0000000000E+00     0.0000000000E+00     0.0000000000E+00
     0.0000000000E+00     0.0000000000E+00     0.0000000000E+00     0.0000000000E+00
     0.0000000000E+00     0.0000000000E+00     0.0000000000E+00     0.0000000000E+00
     0.0000000000E+00     0.0000000000E+00     0.0000000000E+00     0.0000000000E+00
     0.0000000000E+00     0.0000000000E+00     0.0000000000E+00     0.0000000000E+00
     0.0000000000E+00     0.0000000000E+00     0.0000000000E+00     0.0000000000E+00
     0.0000000000E+00     0.0000000000E+00     0.0000000000E+00     0.0000000000E+00
     0.0000000000E+00     0.0000000000E+00     0.0000000000E+00     0.0000000000E+00
     0.0000000000E+00     0.0000000000E+00     0.0000000000E+00     0.0000000000E+00
     0.0000000000E+00     0.0000000000E+00     0.0000000000E+00     0.0000000000E+00
     0.0000000000E+00     0.0000000000E+00     0.0000000000E+00     0.0000000000E+00
     0.0000000000E+00     0.0000000000E+00     0.0000000000E+00     0.0000000000E+00
     0.0000000000E+00     0.0000000000E+00     0.0000000000E+00     0.0000000000E+00
     0.0000000000E+00     0.0000000000E+00     0.0000000000E+00     0.0000000000E+00
     0.0000000000E+00     0.0000000000E+00     0.0000000000E+00     0.0000000000E+00
     0.0000000000E+00     0.0000000000E+00     0.0000000000E+00     0.0000000000E+00
     0.0000000000E+00     0.0000000000E+00     0.0000000000E+00     0.0000000000E+00
     0.0000000000E+00     0.0000000000E+00     0.0000000000E+00     0.0000000000E+00
     0.0000000000E+00     0.0000000000E+00     0.0000000000E+00     0.0000000000E+00
     0.0000000000E+00     0.0000000000E+00     0.0000000000E+00     0.0000000000E+00
     0.0000000000E+00     0.0000000000E+00     0.0000000000E+00     0.0000000000E+00
     0.0000000000E+00     0.0000000000E+00     0.0000000000E+00     0.0000000000E+00
     0.0000000000E+00     0.0000000000E+00     0.0000000000E+00     0.0000000000E+00
     0.0000000000E+00     0.0000000000E+00     0.0000000000E+00     0.0000000000E+00
     0.0000000000E+00     0.0000000000E+00     0.0000000000E+00     0.0000000000E+00
     0.0000000000E+00     0.0000000000E+00     0.0000000000E+00     0.0000000000E+00
     0.0000000000E+00     0.0000000000E+00     0.0000000000E+00     0.0000000000E+00
     0.0000000000E+00     0.0000000000E+00     0.0000000000E+00     0.0000000000E+00
     0.0000000000E+00     0.0000000000E+00     0.0000000000E+00     0.0000000000E+00
     0.0000000000E+00     0.0000000000E+00     0.0000000000E+00     0.0000000000E+00
     0.0000000000E+00     0.0000000000E+00     0.0000000000E+00     0.0000000000E+00
     0.0000000000E+00     0.0000000000E+00     0.0000000000E+00     0.0000000000E+00
     0.0000000000E+00     0.0000000000E+00     0.0000000000E+00     0.0000000000E+00
     0.0000000000E+00     0.0000000000E+00     0.0000000000E+00     0.0000000000E+00
     0.0000000000E+00     0.0000000000E+00     0.0000000000E+00     0.0000000000E+00
     0.0000000000E+00     0.0000000000E+00     0.0000000000E+00     0.0000000000E+00
     0.0000000000E+00     0.0000000000E+00     0.0000000000E+00     0.0000000000E+00
     0.0000000000E+00     0.0000000000E+00     0.0000000000E+00     0.0000000000E+00
     0.0000000000E+00     0.0000000000E+00     0.0000000000E+00     0.0000000000E+00
     0.0000000000E+00     0.0000000000E+00     0.0000000000E+00     0.0000000000E+00
     0.0000000000E+00     0.0000000000E+00     0.0000000000E+00     0.0000000000E+00
     0.0000000000E+00     0.0000000000E+00     0.0000000000E+00     0.0000000000E+00
     0.0000000000E+00     0.0000000000E+00     0.0000000000E+00     0.0000000000E+00
     0.0000000000E+00     0.0000000000E+00     0.0000000000E+00     0.0000000000E+00
     0.0000000000E+00     0.0000000000E+00     0.0000000000E+00     0.0000000000E+00
     0.0000000000E+00     0.0000000000E+00     0.0000000000E+00     0.0000000000E+00
     0.0000000000E+00     0.0000000000E+00     0.0000000000E+00     0.0000000000E+00
     0.0000000000E+00     0.0000000000E+00     0.0000000000E+00     0.0000000000E+00
     0.0000000000E+00     0.0000000000E+00     0.0000000000E+00     0.0000000000E+00
     0.0000000000E+00     0.0000000000E+00     0.0000000000E+00     0.0000000000E+00
     0.0000000000E+00     0.0000000000E+00     0.0000000000E+00     0.0000000000E+00
     0.0000000000E+00     0.0000000000E+00     0.0000000000E+00     0.0000000000E+00
     0.0000000000E+00     0.0000000000E+00     0.0000000000E+00     0.0000000000E+00
     0.0000000000E+00     0.0000000000E+00     0.0000000000E+00     0.0000000000E+00
     0.0000000000E+00     0.0000000000E+00     0.0000000000E+00     0.0000000000E+00
     0.0000000000E+00     0.0000000000E+00     0.0000000000E+00     0.0000000000E+00
     0.0000000000E+00     0.0000000000E+00     0.0000000000E+00     0.0000000000E+00
     0.0000000000E+00     0.0000000000E+00     0.0000000000E+00     0.0000000000E+00
     0.0000000000E+00     0.0000000000E+00     0.0000000000E+00     0.0000000000E+00
     0.0000000000E+00     0.0000000000E+00     0.0000000000E+00     0.0000000000E+00
     0.0000000000E+00     0.0000000000E+00     0.0000000000E+00     0.0000000000E+00
     0.0000000000E+00     0.0000000000E+00     0.0000000000E+00     0.0000000000E+00
     0.0000000000E+00     0.0000000000E+00     0.0000000000E+00     0.0000000000E+00
     0.0000000000E+00     0.0000000000E+00     0.0000000000E+00     0.0000000000E+00
     0.0000000000E+00     0.0000000000E+00     0.0000000000E+00     0.0000000000E+00
     0.0000000000E+00     0.0000000000E+00     0.0000000000E+00     0.0000000000E+00
     0.0000000000E+00     0.0000000000E+00     0.0000000000E+00     0.0000000000E+00
     0.0000000000E+00     0.0000000000E+00     0.0000000000E+00     0.0000000000E+00
     0.0000000000E+00     0.0000000000E+00     0.0000000000E+00     0.0000000000E+00
     0.0000000000E+00     0.0000000000E+00     0.0000000000E+00     0.0000000000E+00
     0.0000000000E+00     0.0000000000E+00     0.0000000000E+00     0.0000000000E+00
     0.0000000000E+00     0.0000000000E+00     0.0000000000E+00     0.0000000000E+00
     0.0000000000E+00     0.0000000000E+00     0.0000000000E+00     0.0000000000E+00
     0.0000000000E+00     0.0000000000E+00     0.0000000000E+00     0.0000000000E+00
     0.0000000000E+00     0.0000000000E+00     0.0000000000E+00     0.0000000000E+00
     0.0000000000E+00     0.0000000000E+00     0.0000000000E+00     0.0000000000E+00
     0.0000000000E+00     0.0000000000E+00     0.0000000000E+00     0.0000000000E+00
     0.0000000000E+00     0.0000000000E+00     0.0000000000E+00     0.0000000000E+00
     0.0000000000E+00     0.0000000000E+00     0.0000000000E+00     0.0000000000E+00
     0.0000000000E+00     0.0000000000E+00     0.0000000000E+00     0.0000000000E+00
     0.0000000000E+00     0.0000000000E+00     0.0000000000E+00     0.0000000000E+00
     0.0000000000E+00     0.0000000000E+00     0.0000000000E+00     0.0000000000E+00
     0.0000000000E+00     0.0000000000E+00     0.0000000000E+00     0.0000000000E+00
     0.0000000000E+00     0.0000000000E+00     0.0000000000E+00     0.0000000000E+00
     0.0000000000E+00     0.0000000000E+00     0.0000000000E+00     0.0000000000E+00
     0.0000000000E+00     0.0000000000E+00     0.0000000000E+00     0.0000000000E+00
     0.0000000000E+00     0.0000000000E+00     0.0000000000E+00     0.0000000000E+00
     0.0000000000E+00     0.0000000000E+00     0.0000000000E+00     0.0000000000E+00
     0.0000000000E+00     0.0000000000E+00     0.0000000000E+00     0.0000000000E+00
     0.0000000000E+00     0.0000000000E+00     0.0000000000E+00     0.0000000000E+00
     0.0000000000E+00     0.0000000000E+00     0.0000000000E+00     0.0000000000E+00
     0.0000000000E+00     0.0000000000E+00     0.0000000000E+00     0.0000000000E+00
     0.0000000000E+00     0.0000000000E+00     0.0000000000E+00     0.0000000000E+00
     0.0000000000E+00     0.0000000000E+00     0.0000000000E+00     0.0000000000E+00
     0.0000000000E+00     0.0000000000E+00     0.0000000000E+00     0.0000000000E+00
     0.0000000000E+00     0.0000000000E+00     0.0000000000E+00     0.0000000000E+00
     0.0000000000E+00     0.0000000000E+00     0.0000000000E+00     0.0000000000E+00
     0.0000000000E+00     0.0000000000E+00     0.0000000000E+00     0.0000000000E+00
     0.0000000000E+00     0.0000000000E+00     0.0000000000E+00     0.0000000000E+00
     0.0000000000E+00     0.0000000000E+00     0.0000000000E+00     0.0000000000E+00
     0.0000000000E+00     0.0000000000E+00     0.0000000000E+00     0.0000000000E+00
     0.0000000000E+00     0.0000000000E+00     0.0000000000E+00     0.0000000000E+00
     0.0000000000E+00     0.0000000000E+00     0.0000000000E+00     0.0000000000E+00
     0.0000000000E+00     0.0000000000E+00     0.0000000000E+00     0.0000000000E+00
     0.0000000000E+00     0.0000000000E+00     0.0000000000E+00     0.0000000000E+00
     0.0000000000E+00     0.0000000000E+00     0.0000000000E+00     0.0000000000E+00
     0.0000000000E+00     0.0000000000E+00     0.0000000000E+00     0.0000000000E+00
     0.0000000000E+00     0.0000000000E+00     0.0000000000E+00     0.0000000000E+00
     0.0000000000E+00     0.0000000000E+00     0.0000000000E+00     0.0000000000E+00
     0.0000000000E+00     0.0000000000E+00     0.0000000000E+00     0.0000000000E+00
     0.0000000000E+00     0.0000000000E+00     0.0000000000E+00     0.0000000000E+00
     0.0000000000E+00     0.0000000000E+00     0.0000000000E+00     0.0000000000E+00
     0.0000000000E+00     0.0000000000E+00     0.0000000000E+00     0.0000000000E+00
     0.0000000000E+00     0.0000000000E+00     0.0000000000E+00     0.0000000000E+00
     0.0000000000E+00     0.0000000000E+00     0.0000000000E+00     0.0000000000E+00
     0.0000000000E+00     0.0000000000E+00     0.0000000000E+00     0.0000000000E+00
     0.0000000000E+00     0.0000000000E+00     0.0000000000E+00     0.0000000000E+00
     0.0000000000E+00     0.0000000000E+00     0.0000000000E+00     0.0000000000E+00
     0.0000000000E+00     0.0000000000E+00     0.0000000000E+00     0.0000000000E+00
     0.0000000000E+00     0.0000000000E+00     0.0000000000E+00     0.0000000000E+00
     0.0000000000E+00     0.0000000000E+00     0.0000000000E+00     0.0000000000E+00
     0.0000000000E+00     0.0000000000E+00     0.0000000000E+00     0.0000000000E+00
     0.0000000000E+00     0.0000000000E+00     0.0000000000E+00     0.0000000000E+00
     0.0000000000E+00     0.0000000000E+00     0.0000000000E+00     0.0000000000E+00
     0.0000000000E+00     0.0000000000E+00     0.0000000000E+00     0.0000000000E+00
     0.0000000000E+00     0.0000000000E+00     0.0000000000E+00     0.0000000000E+00
     0.0000000000E+00     0.0000000000E+00     0.0000000000E+00     0.0000000000E+00
     0.0000000000E+00     0.0000000000E+00     0.0000000000E+00     0.0000000000E+00
     0.0000000000E+00     0.0000000000E+00     0.0000000000E+00     0.0000000000E+00
     0.0000000000E+00     0.0000000000E+00     0.0000000000E+00     0.0000000000E+00
     0.0000000000E+00     0.0000000000E+00     0.0000000000E+00     0.0000000000E+00
     0.0000000000E+00     0.0000000000E+00     0.0000000000E+00     0.0000000000E+00
     0.0000000000E+00     0.0000000000E+00     0.0000000000E+00     0.0000000000E+00
     0.0000000000E+00     0.0000000000E+00     0.0000000000E+00     0.0000000000E+00
     0.0000000000E+00     0.0000000000E+00     0.0000000000E+00     0.0000000000E+00
     0.0000000000E+00     0.0000000000E+00     0.0000000000E+00     0.0000000000E+00
     0.0000000000E+00     0.0000000000E+00     0.0000000000E+00     0.0000000000E+00
     0.0000000000E+00     0.0000000000E+00     0.0000000000E+00     0.0000000000E+00
     0.0000000000E+00     0.0000000000E+00     0.0000000000E+00     0.0000000000E+00
     0.0000000000E+00     0.0000000000E+00     0.0000000000E+00     0.0000000000E+00
     0.0000000000E+00     0.0000000000E+00     0.0000000000E+00     0.0000000000E+00
     0.0000000000E+00     0.0000000000E+00     0.0000000000E+00     0.0000000000E+00
     0.0000000000E+00     0.0000000000E+00     0.0000000000E+00     0.0000000000E+00
     0.0000000000E+00     0.0000000000E+00     0.0000000000E+00     0.0000000000E+00
     0.0000000000E+00     0.0000000000E+00     0.0000000000E+00     0.0000000000E+00
     0.0000000000E+00     0.0000000000E+00     0.0000000000E+00     0.0000000000E+00
     0.0000000000E+00     0.0000000000E+00     0.0000000000E+00     0.0000000000E+00
     0.0000000000E+00     0.0000000000E+00     0.0000000000E+00     0.0000000000E+00
     0.0000000000E+00     0.0000000000E+00     0.0000000000E+00     0.0000000000E+00
     0.0000000000E+00     0.0000000000E+00     0.0000000000E+00     0.0000000000E+00
     0.0000000000E+00     0.0000000000E+00     0.0000000000E+00     0.0000000000E+00
     0.0000000000E+00     0.0000000000E+00     0.0000000000E+00     0.0000000000E+00
     0.0000000000E+00     0.0000000000E+00     0.0000000000E+00     0.0000000000E+00
     0.0000000000E+00     0.0000000000E+00     0.0000000000E+00     0.0000000000E+00
     0.0000000000E+00     0.0000000000E+00     0.0000000000E+00     0.0000000000E+00
     0.0000000000E+00     0.0000000000E+00     0.0000000000E+00     0.0000000000E+00
     0.0000000000E+00     0.0000000000E+00     0.0000000000E+00     0.0000000000E+00
     0.0000000000E+00     0.0000000000E+00     0.0000000000E+00     0.0000000000E+00
     0.0000000000E+00     0.0000000000E+00     0.0000000000E+00     0.0000000000E+00
     0.0000000000E+00     0.0000000000E+00     0.0000000000E+00     0.0000000000E+00
     0.0000000000E+00     0.0000000000E+00     0.0000000000E+00     0.0000000000E+00
     0.0000000000E+00     0.0000000000E+00     0.0000000000E+00     0.0000000000E+00
     0.0000000000E+00     0.0000000000E+00     0.0000000000E+00     0.0000000000E+00
     0.0000000000E+00     0.0000000000E+00     0.0000000000E+00     0.0000000000E+00
     0.0000000000E+00     0.0000000000E+00     0.0000000000E+00     0.0000000000E+00
     0.0000000000E+00     0.0000000000E+00     0.0000000000E+00     0.0000000000E+00
     0.0000000000E+00     0.0000000000E+00     0.0000000000E+00     0.0000000000E+00
     0.0000000000E+00     0.0000000000E+00     0.0000000000E+00     0.0000000000E+00
     0.0000000000E+00     0.0000000000E+00     0.0000000000E+00     0.0000000000E+00
     0.0000000000E+00     0.0000000000E+00     0.0000000000E+00     0.0000000000E+00
     0.0000000000E+00     0.0000000000E+00     0.0000000000E+00     0.0000000000E+00
     0.0000000000E+00     0.0000000000E+00     0.0000000000E+00     0.0000000000E+00
     0.0000000000E+00     0.0000000000E+00     0.0000000000E+00     0.0000000000E+00
     0.0000000000E+00     0.0000000000E+00     0.0000000000E+00     0.0000000000E+00
     0.0000000000E+00     0.0000000000E+00     0.0000000000E+00     0.0000000000E+00
     0.0000000000E+00     0.0000000000E+00     0.0000000000E+00     0.0000000000E+00
     0.0000000000E+00     0.0000000000E+00     0.0000000000E+00     0.0000000000E+00
     0.0000000000E+00     0.0000000000E+00     0.0000000000E+00     0.0000000000E+00
     0.0000000000E+00     0.0000000000E+00     0.0000000000E+00     0.0000000000E+00
     0.0000000000E+00     0.0000000000E+00     0.0000000000E+00     0.0000000000E+00
     0.0000000000E+00     0.0000000000E+00     0.0000000000E+00     0.0000000000E+00
     0.0000000000E+00     0.0000000000E+00     0.0000000000E+00     0.0000000000E+00
     0.0000000000E+00     0.0000000000E+00     0.0000000000E+00     0.0000000000E+00
     0.0000000000E+00     0.0000000000E+00     0.0000000000E+00     0.0000000000E+00
     0.0000000000E+00     0.0000000000E+00     0.0000000000E+00     0.0000000000E+00
     0.0000000000E+00     0.0000000000E+00     0.0000000000E+00     0.0000000000E+00
     0.0000000000E+00     0.0000000000E+00     0.0000000000E+00     0.0000000000E+00
     0.0000000000E+00     0.0000000000E+00     0.0000000000E+00     0.0000000000E+00
     0.0000000000E+00     0.0000000000E+00     0.0000000000E+00     0.0000000000E+00
     0.0000000000E+00     0.0000000000E+00     0.0000000000E+00     0.0000000000E+00
     0.0000000000E+00     0.0000000000E+00     0.0000000000E+00     0.0000000000E+00
     0.0000000000E+00     0.0000000000E+00     0.0000000000E+00     0.0000000000E+00
     0.0000000000E+00     0.0000000000E+00     0.0000000000E+00     0.0000000000E+00
     0.0000000000E+00     0.0000000000E+00     0.0000000000E+00     0.0000000000E+00
     0.0000000000E+00     0.0000000000E+00     0.0000000000E+00     0.0000000000E+00
     0.0000000000E+00     0.0000000000E+00     0.0000000000E+00     0.0000000000E+00
     0.0000000000E+00     0.0000000000E+00     0.0000000000E+00     0.0000000000E+00
     0.0000000000E+00     0.0000000000E+00     0.0000000000E+00     0.0000000000E+00
     0.0000000000E+00     0.0000000000E+00     0.0000000000E+00     0.0000000000E+00
     0.0000000000E+00     0.0000000000E+00     0.0000000000E+00     0.0000000000E+00
     0.0000000000E+00     0.0000000000E+00     0.0000000000E+00     0.0000000000E+00
     0.0000000000E+00     0.0000000000E+00     0.0000000000E+00     0.0000000000E+00
     0.0000000000E+00     0.0000000000E+00     0.0000000000E+00     0.0000000000E+00
     0.0000000000E+00     0.0000000000E+00     0.0000000000E+00     0.0000000000E+00
     0.0000000000E+00     0.0000000000E+00     0.0000000000E+00     0.0000000000E+00
     0.0000000000E+00     0.0000000000E+00     0.0000000000E+00     0.0000000000E+00
     0.0000000000E+00     0.0000000000E+00     0.0000000000E+00     0.0000000000E+00
     0.0000000000E+00     0.0000000000E+00     0.0000000000E+00     0.0000000000E+00
     0.0000000000E+00     0.0000000000E+00     0.0000000000E+00     0.0000000000E+00
     0.0000000000E+00     0.0000000000E+00     0.0000000000E+00     0.0000000000E+00
     0.0000000000E+00     0.0000000000E+00     0.0000000000E+00     0.0000000000E+00
     0.0000000000E+00     0.0000000000E+00     0.0000000000E+00     0.0000000000E+00
     0.0000000000E+00     0.0000000000E+00     0.0000000000E+00     0.0000000000E+00
     0.0000000000E+00     0.0000000000E+00     0.0000000000E+00     0.0000000000E+00
     0.0000000000E+00     0.0000000000E+00     0.0000000000E+00     0.0000000000E+00
     0.0000000000E+00     0.0000000000E+00     0.0000000000E+00     0.0000000000E+00
     0.0000000000E+00     0.0000000000E+00     0.0000000000E+00     0.0000000000E+00
     0.0000000000E+00     0.0000000000E+00     0.0000000000E+00     0.0000000000E+00
     0.0000000000E+00     0.0000000000E+00     0.0000000000E+00     0.0000000000E+00
     0.0000000000E+00     0.0000000000E+00     0.0000000000E+00     0.0000000000E+00
     0.0000000000E+00     0.0000000000E+00     0.0000000000E+00     0.0000000000E+00
     0.0000000000E+00     0.0000000000E+00     0.0000000000E+00     0.0000000000E+00
     0.0000000000E+00     0.0000000000E+00     0.0000000000E+00     0.0000000000E+00
     0.0000000000E+00     0.0000000000E+00     0.0000000000E+00     0.0000000000E+00
     0.0000000000E+00     0.0000000000E+00     0.0000000000E+00     0.0000000000E+00
     0.0000000000E+00     0.0000000000E+00     0.0000000000E+00     0.0000000000E+00
     0.0000000000E+00     0.0000000000E+00     0.0000000000E+00     0.0000000000E+00
     0.0000000000E+00     0.0000000000E+00     0.0000000000E+00     0.0000000000E+00
     0.0000000000E+00     0.0000000000E+00     0.0000000000E+00     0.0000000000E+00
     0.0000000000E+00     0.0000000000E+00     0.0000000000E+00     0.0000000000E+00
     0.0000000000E+00     0.0000000000E+00     0.0000000000E+00     0.0000000000E+00
     0.0000000000E+00     0.0000000000E+00     0.0000000000E+00     0.0000000000E+00
     0.0000000000E+00     0.0000000000E+00     0.0000000000E+00     0.0000000000E+00
     0.0000000000E+00     0.0000000000E+00     0.0000000000E+00     0.0000000000E+00
     0.0000000000E+00     0.0000000000E+00     0.0000000000E+00     0.0000000000E+00
     0.0000000000E+00     0.0000000000E+00     0.0000000000E+00     0.0000000000E+00
     0.0000000000E+00     0.0000000000E+00     0.0000000000E+00     0.0000000000E+00
     0.0000000000E+00     0.0000000000E+00     0.0000000000E+00     0.0000000000E+00
     0.0000000000E+00     0.0000000000E+00     0.0000000000E+00     0.0000000000E+00
     0.0000000000E+00     0.0000000000E+00     0.0000000000E+00     0.0000000000E+00
     0.0000000000E+00     0.0000000000E+00     0.0000000000E+00     0.0000000000E+00
     0.0000000000E+00     0.0000000000E+00     0.0000000000E+00     0.0000000000E+00
     0.0000000000E+00     0.0000000000E+00     0.0000000000E+00     0.0000000000E+00
     0.0000000000E+00     0.0000000000E+00     0.0000000000E+00     0.0000000000E+00
     0.0000000000E+00     0.0000000000E+00     0.0000000000E+00     0.0000000000E+00
     0.0000000000E+00     0.0000000000E+00     0.0000000000E+00     0.0000000000E+00
     0.0000000000E+00     0.0000000000E+00     0.0000000000E+00     0.0000000000E+00
     0.0000000000E+00     0.0000000000E+00     0.0000000000E+00     0.0000000000E+00
     0.0000000000E+00     0.0000000000E+00     0.0000000000E+00     0.0000000000E+00
     0.0000000000E+00     0.0000000000E+00     0.0000000000E+00     0.0000000000E+00
     0.0000000000E+00     0.0000000000E+00     0.0000000000E+00     0.0000000000E+00
     0.0000000000E+00     0.0000000000E+00     0.0000000000E+00     0.0000000000E+00
     0.0000000000E+00     0.0000000000E+00     0.0000000000E+00     0.0000000000E+00
     0.0000000000E+00     0.0000000000E+00     0.0000000000E+00     0.0000000000E+00
     0.0000000000E+00     0.0000000000E+00     0.0000000000E+00     0.0000000000E+00
     0.0000000000E+00     0.0000000000E+00     0.0000000000E+00     0.0000000000E+00
     0.0000000000E+00     0.0000000000E+00     0.0000000000E+00     0.0000000000E+00
     0.0000000000E+00     0.0000000000E+00     0.0000000000E+00     0.0000000000E+00
     0.0000000000E+00     0.0000000000E+00     0.0000000000E+00     0.0000000000E+00
     0.0000000000E+00     0.0000000000E+00     0.0000000000E+00     0.0000000000E+00
     0.0000000000E+00     0.0000000000E+00     0.0000000000E+00     0.0000000000E+00
     0.0000000000E+00     0.0000000000E+00     0.0000000000E+00     0.0000000000E+00
     0.0000000000E+00     0.0000000000E+00     0.0000000000E+00     0.0000000000E+00
     0.0000000000E+00     0.0000000000E+00     0.0000000000E+00     0.0000000000E+00
     0.0000000000E+00     0.0000000000E+00     0.0000000000E+00     0.0000000000E+00
     0.0000000000E+00     0.0000000000E+00     0.0000000000E+00     0.0000000000E+00
     0.0000000000E+00     0.0000000000E+00     0.0000000000E+00     0.0000000000E+00
     0.0000000000E+00     0.0000000000E+00     0.0000000000E+00     0.0000000000E+00
     0.0000000000E+00     0.0000000000E+00     0.0000000000E+00     0.0000000000E+00
     0.0000000000E+00     0.0000000000E+00     0.0000000000E+00     0.0000000000E+00
     0.0000000000E+00     0.0000000000E+00     0.0000000000E+00     0.0000000000E+00
     0.0000000000E+00     0.0000000000E+00     0.0000000000E+00     0.0000000000E+00
     0.0000000000E+00     0.0000000000E+00     0.0000000000E+00     0.0000000000E+00
     0.0000000000E+00     0.0000000000E+00     0.0000000000E+00     0.0000000000E+00
     0.0000000000E+00     0.0000000000E+00     0.0000000000E+00     0.0000000000E+00
     0.0000000000E+00     0.0000000000E+00     0.0000000000E+00     0.0000000000E+00
     0.0000000000E+00     0.0000000000E+00     0.0000000000E+00     0.0000000000E+00
     0.0000000000E+00     0.0000000000E+00     0.0000000000E+00     0.0000000000E+00
     0.0000000000E+00     0.0000000000E+00     0.0000000000E+00     0.0000000000E+00
     0.0000000000E+00     0.0000000000E+00     0.0000000000E+00     0.0000000000E+00
     0.0000000000E+00     0.0000000000E+00     0.0000000000E+00     0.0000000000E+00
     0.0000000000E+00     0.0000000000E+00     0.0000000000E+00     0.0000000000E+00
     0.0000000000E+00     0.0000000000E+00     0.0000000000E+00     0.0000000000E+00
     0.0000000000E+00     0.0000000000E+00     0.0000000000E+00     0.0000000000E+00
     0.0000000000E+00     0.0000000000E+00     0.0000000000E+00     0.0000000000E+00
     0.0000000000E+00     0.0000000000E+00     0.0000000000E+00     0.0000000000E+00
     0.0000000000E+00     0.0000000000E+00     0.0000000000E+00     0.0000000000E+00
     0.0000000000E+00     0.0000000000E+00     0.0000000000E+00     0.0000000000E+00
     0.0000000000E+00     0.0000000000E+00     0.0000000000E+00     0.0000000000E+00
     0.0000000000E+00     0.0000000000E+00     0.0000000000E+00     0.0000000000E+00
     0.0000000000E+00     0.0000000000E+00     0.0000000000E+00     0.0000000000E+00
     0.0000000000E+00     0.0000000000E+00     0.0000000000E+00     0.0000000000E+00
     0.0000000000E+00     0.0000000000E+00     0.0000000000E+00     0.0000000000E+00
     0.0000000000E+00     0.0000000000E+00     0.0000000000E+00     0.0000000000E+00
     0.0000000000E+00     0.0000000000E+00     0.0000000000E+00     0.0000000000E+00
     0.0000000000E+00     0.0000000000E+00     0.0000000000E+00     0.0000000000E+00
     0.0000000000E+00     0.0000000000E+00     0.0000000000E+00     0.0000000000E+00
     0.0000000000E+00     0.0000000000E+00     0.0000000000E+00     0.0000000000E+00
     0.0000000000E+00     0.0000000000E+00     0.0000000000E+00     0.0000000000E+00
     0.0000000000E+00     0.0000000000E+00     0.0000000000E+00     0.0000000000E+00
     0.0000000000E+00     0.0000000000E+00     0.0000000000E+00     0.0000000000E+00
     0.0000000000E+00     0.0000000000E+00     0.0000000000E+00     0.0000000000E+00
     0.0000000000E+00     0.0000000000E+00     0.0000000000E+00     0.0000000000E+00
     0.0000000000E+00     0.0000000000E+00     0.0000000000E+00     0.0000000000E+00
     0.0000000000E+00     0.0000000000E+00     0.0000000000E+00     0.0000000000E+00
     0.0000000000E+00     0.0000000000E+00     0.0000000000E+00     0.0000000000E+00
     0.0000000000E+00     0.0000000000E+00     0.0000000000E+00     0.0000000000E+00
     0.0000000000E+00     0.0000000000E+00     0.0000000000E+00     0.0000000000E+00
     0.0000000000E+00     0.0000000000E+00     0.0000000000E+00     0.0000000000E+00
     0.0000000000E+00     0.0000000000E+00     0.0000000000E+00     0.0000000000E+00
     0.0000000000E+00     0.0000000000E+00     0.0000000000E+00     0.0000000000E+00
     0.0000000000E+00     0.0000000000E+00     0.0000000000E+00     0.0000000000E+00
     0.0000000000E+00     0.0000000000E+00     0.0000000000E+00     0.0000000000E+00
     0.0000000000E+00     0.0000000000E+00     0.0000000000E+00     0.0000000000E+00
     0.0000000000E+00     0.0000000000E+00     0.0000000000E+00     0.0000000000E+00
     0.0000000000E+00     0.0000000000E+00     0.0000000000E+00     0.0000000000E+00
     0.0000000000E+00     0.0000000000E+00     0.0000000000E+00     0.0000000000E+00
     0.0000000000E+00     0.0000000000E+00     0.0000000000E+00     0.0000000000E+00
     0.0000000000E+00     0.0000000000E+00     0.0000000000E+00     0.0000000000E+00
     0.0000000000E+00     0.0000000000E+00     0.0000000000E+00     0.0000000000E+00
     0.0000000000E+00     0.0000000000E+00     0.0000000000E+00     0.0000000000E+00
     0.0000000000E+00     0.0000000000E+00     0.0000000000E+00     0.0000000000E+00
     0.0000000000E+00     0.0000000000E+00     0.0000000000E+00     0.0000000000E+00
     0.0000000000E+00     0.0000000000E+00     0.0000000000E+00     0.0000000000E+00
     0.0000000000E+00     0.0000000000E+00     0.0000000000E+00     0.0000000000E+00
     0.0000000000E+00     0.0000000000E+00     0.0000000000E+00     0.0000000000E+00
     0.0000000000E+00     0.0000000000E+00     0.0000000000E+00     0.0000000000E+00
     0.0000000000E+00     0.0000000000E+00     0.0000000000E+00     0.0000000000E+00
     0.0000000000E+00     0.0000000000E+00     0.0000000000E+00     0.0000000000E+00
     0.0000000000E+00     0.0000000000E+00     0.0000000000E+00     0.0000000000E+00
     0.0000000000E+00     0.0000000000E+00     0.0000000000E+00     0.0000000000E+00
     0.0000000000E+00     0.0000000000E+00     0.0000000000E+00     0.0000000000E+00
     0.0000000000E+00     0.0000000000E+00     0.0000000000E+00     0.0000000000E+00
     0.0000000000E+00     0.0000000000E+00     0.0000000000E+00     0.0000000000E+00
     0.0000000000E+00     0.0000000000E+00     0.0000000000E+00     0.0000000000E+00
     0.0000000000E+00     0.0000000000E+00     0.0000000000E+00     0.0000000000E+00
     0.0000000000E+00     0.0000000000E+00     0.0000000000E+00     0.0000000000E+00
     0.0000000000E+00     0.0000000000E+00     0.0000000000E+00     0.0000000000E+00
     0.0000000000E+00     0.0000000000E+00     0.0000000000E+00     0.0000000000E+00
     0.0000000000E+00     0.0000000000E+00     0.0000000000E+00     0.0000000000E+00
     0.0000000000E+00     0.0000000000E+00     0.0000000000E+00     0.0000000000E+00
     0.0000000000E+00     0.0000000000E+00     0.0000000000E+00     0.0000000000E+00
     0.0000000000E+00     0.0000000000E+00     0.0000000000E+00     0.0000000000E+00
     0.0000000000E+00     0.0000000000E+00     0.0000000000E+00     0.0000000000E+00
     0.0000000000E+00     0.0000000000E+00     0.0000000000E+00     0.0000000000E+00
     0.0000000000E+00     0.0000000000E+00     0.0000000000E+00     0.0000000000E+00
     0.0000000000E+00     0.0000000000E+00     0.0000000000E+00     0.0000000000E+00
     0.0000000000E+00     0.0000000000E+00     0.0000000000E+00     0.0000000000E+00
     0.0000000000E+00     0.0000000000E+00     0.0000000000E+00     0.0000000000E+00
     0.0000000000E+00     0.0000000000E+00     0.0000000000E+00     0.0000000000E+00
     0.0000000000E+00     0.0000000000E+00     0.0000000000E+00     0.0000000000E+00
     0.0000000000E+00     0.0000000000E+00     0.0000000000E+00     0.0000000000E+00
     0.0000000000E+00     0.0000000000E+00     0.0000000000E+00     0.0000000000E+00
     0.0000000000E+00     0.0000000000E+00     0.0000000000E+00     0.0000000000E+00
     0.0000000000E+00     0.0000000000E+00     0.0000000000E+00     0.0000000000E+00
     0.0000000000E+00     0.0000000000E+00     0.0000000000E+00     0.0000000000E+00
     0.0000000000E+00     0.0000000000E+00     0.0000000000E+00     0.0000000000E+00
     0.0000000000E+00     0.0000000000E+00     0.0000000000E+00     0.0000000000E+00
     0.0000000000E+00     0.0000000000E+00     0.0000000000E+00     0.0000000000E+00
     0.0000000000E+00     0.0000000000E+00     0.0000000000E+00     0.0000000000E+00
     0.0000000000E+00     0.0000000000E+00     0.0000000000E+00     0.0000000000E+00
     0.0000000000E+00     0.0000000000E+00     0.0000000000E+00     0.0000000000E+00
     0.0000000000E+00     0.0000000000E+00     0.0000000000E+00     0.0000000000E+00
     0.0000000000E+00     0.0000000000E+00     0.0000000000E+00     0.0000000000E+00
     0.0000000000E+00     0.0000000000E+00     0.0000000000E+00     0.0000000000E+00
     0.0000000000E+00     0.0000000000E+00     0.0000000000E+00     0.0000000000E+00
     0.0000000000E+00     0.0000000000E+00     0.0000000000E+00     0.0000000000E+00
     0.0000000000E+00     0.0000000000E+00     0.0000000000E+00     0.0000000000E+00
     0.0000000000E+00     0.0000000000E+00     0.0000000000E+00     0.0000000000E+00
     0.0000000000E+00     0.0000000000E+00     0.0000000000E+00     0.0000000000E+00
     0.0000000000E+00     0.0000000000E+00     0.0000000000E+00     0.0000000000E+00
     0.0000000000E+00     0.0000000000E+00     0.0000000000E+00     0.0000000000E+00
     0.0000000000E+00     0.0000000000E+00     0.0000000000E+00     0.0000000000E+00
     0.0000000000E+00     0.0000000000E+00     0.0000000000E+00     0.0000000000E+00
     0.0000000000E+00     0.0000000000E+00     0.0000000000E+00     0.0000000000E+00
     0.0000000000E+00     0.0000000000E+00     0.0000000000E+00     0.0000000000E+00
     0.0000000000E+00     0.0000000000E+00     0.0000000000E+00     0.0000000000E+00
     0.0000000000E+00     0.0000000000E+00     0.0000000000E+00     0.0000000000E+00
     0.0000000000E+00     0.0000000000E+00     0.0000000000E+00     0.0000000000E+00
     0.0000000000E+00     0.0000000000E+00     0.0000000000E+00     0.0000000000E+00
     0.0000000000E+00     0.0000000000E+00     0.0000000000E+00     0.0000000000E+00
     0.0000000000E+00     0.0000000000E+00     0.0000000000E+00     0.0000000000E+00
     0.0000000000E+00     0.0000000000E+00     0.0000000000E+00     0.0000000000E+00
     0.0000000000E+00     0.0000000000E+00     0.0000000000E+00     0.0000000000E+00
     0.0000000000E+00     0.0000000000E+00     0.0000000000E+00     0.0000000000E+00
     0.0000000000E+00     0.0000000000E+00     0.0000000000E+00     0.0000000000E+00
     0.0000000000E+00     0.0000000000E+00     0.0000000000E+00     0.0000000000E+00
     0.0000000000E+00     0.0000000000E+00     0.0000000000E+00     0.0000000000E+00
     0.0000000000E+00     0.0000000000E+00     0.0000000000E+00     0.0000000000E+00
     0.0000000000E+00     0.0000000000E+00     0.0000000000E+00     0.0000000000E+00
     0.0000000000E+00     0.0000000000E+00     0.0000000000E+00     0.0000000000E+00
     0.0000000000E+00     0.0000000000E+00     0.0000000000E+00     0.0000000000E+00
     0.0000000000E+00     0.0000000000E+00     0.0000000000E+00     0.0000000000E+00
     0.0000000000E+00     0.0000000000E+00     0.0000000000E+00     0.0000000000E+00
     0.0000000000E+00     0.0000000000E+00     0.0000000000E+00     0.0000000000E+00
     0.0000000000E+00     0.0000000000E+00     0.0000000000E+00     0.0000000000E+00
     0.0000000000E+00     0.0000000000E+00     0.0000000000E+00     0.0000000000E+00
     0.0000000000E+00     0.0000000000E+00     0.0000000000E+00     0.0000000000E+00
     0.0000000000E+00     0.0000000000E+00     0.0000000000E+00     0.0000000000E+00
     0.0000000000E+00     0.0000000000E+00     0.0000000000E+00     0.0000000000E+00
     0.0000000000E+00     0.0000000000E+00     0.0000000000E+00     0.0000000000E+00
     0.0000000000E+00     0.0000000000E+00     0.0000000000E+00     0.0000000000E+00
     0.0000000000E+00     0.0000000000E+00     0.0000000000E+00     0.0000000000E+00
     0.0000000000E+00     0.0000000000E+00     0.0000000000E+00     0.0000000000E+00
     0.0000000000E+00     0.0000000000E+00     0.0000000000E+00     0.0000000000E+00
     0.0000000000E+00     0.0000000000E+00     0.0000000000E+00     0.0000000000E+00
     0.0000000000E+00     0.0000000000E+00     0.0000000000E+00     0.0000000000E+00
     0.0000000000E+00     0.0000000000E+00     0.0000000000E+00     0.0000000000E+00
     0.0000000000E+00     0.0000000000E+00     0.0000000000E+00     0.0000000000E+00
     0.0000000000E+00     0.0000000000E+00     0.0000000000E+00     0.0000000000E+00
     0.0000000000E+00     0.0000000000E+00     0.0000000000E+00     0.0000000000E+00
     0.0000000000E+00     0.0000000000E+00     0.0000000000E+00     0.0000000000E+00
     0.0000000000E+00     0.0000000000E+00     0.0000000000E+00     0.0000000000E+00
     0.0000000000E+00     0.0000000000E+00     0.0000000000E+00     0.0000000000E+00
     0.0000000000E+00     0.0000000000E+00     0.0000000000E+00     0.0000000000E+00
     0.0000000000E+00     0.0000000000E+00     0.0000000000E+00     0.0000000000E+00
     0.0000000000E+00     0.0000000000E+00     0.0000000000E+00     0.0000000000E+00
     0.0000000000E+00     0.0000000000E+00     0.0000000000E+00     0.0000000000E+00
     0.0000000000E+00     0.0000000000E+00     0.0000000000E+00     0.0000000000E+00
     0.0000000000E+00     0.0000000000E+00     0.0000000000E+00     0.0000000000E+00
     0.0000000000E+00     0.0000000000E+00     0.0000000000E+00     0.0000000000E+00
     0.0000000000E+00     0.0000000000E+00     0.0000000000E+00     0.0000000000E+00
     0.0000000000E+00     0.0000000000E+00     0.0000000000E+00     0.0000000000E+00
     0.0000000000E+00     0.0000000000E+00     0.0000000000E+00     0.0000000000E+00
     0.0000000000E+00     0.0000000000E+00     0.0000000000E+00     0.0000000000E+00
     0.0000000000E+00     0.0000000000E+00     0.0000000000E+00     0.0000000000E+00
     0.0000000000E+00     0.0000000000E+00     0.0000000000E+00     0.0000000000E+00
     0.0000000000E+00     0.0000000000E+00     0.0000000000E+00     0.0000000000E+00
     0.0000000000E+00     0.0000000000E+00     0.0000000000E+00     0.0000000000E+00
     0.0000000000E+00     0.0000000000E+00     0.0000000000E+00     0.0000000000E+00
     0.0000000000E+00     0.0000000000E+00     0.0000000000E+00     0.0000000000E+00
     0.0000000000E+00     0.0000000000E+00     0.0000000000E+00     0.0000000000E+00
     0.0000000000E+00     0.0000000000E+00     0.0000000000E+00     0.0000000000E+00
     0.0000000000E+00     0.0000000000E+00     0.0000000000E+00     0.0000000000E+00
     0.0000000000E+00     0.0000000000E+00     0.0000000000E+00     0.0000000000E+00
     0.0000000000E+00     0.0000000000E+00     0.0000000000E+00     0.0000000000E+00
     0.0000000000E+00     0.0000000000E+00     0.0000000000E+00     0.0000000000E+00
     0.0000000000E+00     0.0000000000E+00     0.0000000000E+00     0.0000000000E+00
     0.0000000000E+00     0.0000000000E+00     0.0000000000E+00     0.0000000000E+00
     0.0000000000E+00     0.0000000000E+00     0.0000000000E+00     0.0000000000E+00
     0.0000000000E+00     0.0000000000E+00     0.0000000000E+00     0.0000000000E+00
     0.0000000000E+00     0.0000000000E+00     0.0000000000E+00     0.0000000000E+00
     0.0000000000E+00     0.0000000000E+00     0.0000000000E+00     0.0000000000E+00
     0.0000000000E+00     0.0000000000E+00     0.0000000000E+00     0.0000000000E+00
     0.0000000000E+00     0.0000000000E+00     0.0000000000E+00     0.0000000000E+00
     0.0000000000E+00     0.0000000000E+00     0.0000000000E+00     0.0000000000E+00
     0.0000000000E+00     0.0000000000E+00     0.0000000000E+00     0.0000000000E+00
     0.0000000000E+00     0.0000000000E+00     0.0000000000E+00     0.0000000000E+00
     0.0000000000E+00     0.0000000000E+00     0.0000000000E+00     0.0000000000E+00
     0.0000000000E+00     0.0000000000E+00     0.0000000000E+00     0.0000000000E+00
     0.0000000000E+00     0.0000000000E+00     0.0000000000E+00     0.0000000000E+00
     0.0000000000E+00     0.0000000000E+00     0.0000000000E+00     0.0000000000E+00
     0.0000000000E+00     0.0000000000E+00     0.0000000000E+00     0.0000000000E+00
     0.0000000000E+00     0.0000000000E+00     0.0000000000E+00     0.0000000000E+00
     0.0000000000E+00     0.0000000000E+00     0.0000000000E+00     0.0000000000E+00
     0.0000000000E+00     0.0000000000E+00     0.0000000000E+00     0.0000000000E+00
     0.0000000000E+00     0.0000000000E+00     0.0000000000E+00     0.0000000000E+00
     0.0000000000E+00     0.0000000000E+00     0.0000000000E+00     0.0000000000E+00
     0.0000000000E+00     0.0000000000E+00     0.0000000000E+00     0.0000000000E+00
     0.0000000000E+00     0.0000000000E+00     0.0000000000E+00     0.0000000000E+00
     0.0000000000E+00     0.0000000000E+00     0.0000000000E+00     0.0000000000E+00
     0.0000000000E+00     0.0000000000E+00     0.0000000000E+00     0.0000000000E+00
     0.0000000000E+00     0.0000000000E+00     0.0000000000E+00     0.0000000000E+00
     0.0000000000E+00     0.0000000000E+00     0.0000000000E+00     0.0000000000E+00
     0.0000000000E+00     0.0000000000E+00     0.0000000000E+00     0.0000000000E+00
     0.0000000000E+00     0.0000000000E+00     0.0000000000E+00     0.0000000000E+00
     0.0000000000E+00     0.0000000000E+00     0.0000000000E+00     0.0000000000E+00
     0.0000000000E+00     0.0000000000E+00     0.0000000000E+00     0.0000000000E+00
     0.0000000000E+00     0.0000000000E+00     0.0000000000E+00     0.0000000000E+00
     0.0000000000E+00     0.0000000000E+00     0.0000000000E+00     0.0000000000E+00
     0.0000000000E+00     0.0000000000E+00     0.0000000000E+00     0.0000000000E+00
     0.0000000000E+00     0.0000000000E+00     0.0000000000E+00     0.0000000000E+00
     0.0000000000E+00     0.0000000000E+00     0.0000000000E+00     0.0000000000E+00
     0.0000000000E+00     0.0000000000E+00     0.0000000000E+00     0.0000000000E+00
     0.0000000000E+00     0.0000000000E+00     0.0000000000E+00     0.0000000000E+00
     0.0000000000E+00     0.0000000000E+00     0.0000000000E+00     0.0000000000E+00
     0.0000000000E+00     0.0000000000E+00     0.0000000000E+00     0.0000000000E+00
     0.0000000000E+00     0.0000000000E+00     0.0000000000E+00     0.0000000000E+00
     0.0000000000E+00     0.0000000000E+00     0.0000000000E+00     0.0000000000E+00
     0.0000000000E+00     0.0000000000E+00     0.0000000000E+00     0.0000000000E+00
     0.0000000000E+00     0.0000000000E+00     0.0000000000E+00     0.0000000000E+00
     0.0000000000E+00     0.0000000000E+00     0.0000000000E+00     0.0000000000E+00
     0.0000000000E+00     0.0000000000E+00     0.0000000000E+00     0.0000000000E+00
     0.0000000000E+00     0.0000000000E+00     0.0000000000E+00     0.0000000000E+00
     0.0000000000E+00     0.0000000000E+00     0.0000000000E+00     0.0000000000E+00
     0.0000000000E+00     0.0000000000E+00     0.0000000000E+00     0.0000000000E+00
     0.0000000000E+00     0.0000000000E+00     0.0000000000E+00     0.0000000000E+00
     0.0000000000E+00     0.0000000000E+00     0.0000000000E+00     0.0000000000E+00
     0.0000000000E+00     0.0000000000E+00     0.0000000000E+00     0.0000000000E+00
     0.0000000000E+00     0.0000000000E+00     0.0000000000E+00     0.0000000000E+00
     0.0000000000E+00     0.0000000000E+00     0.0000000000E+00     0.0000000000E+00
     0.0000000000E+00     0.0000000000E+00     0.0000000000E+00     0.0000000000E+00
     0.0000000000E+00     0.0000000000E+00     0.0000000000E+00     0.0000000000E+00
     0.0000000000E+00     0.0000000000E+00     0.0000000000E+00     0.0000000000E+00
     0.0000000000E+00     0.0000000000E+00     0.0000000000E+00     0.0000000000E+00
     0.0000000000E+00     0.0000000000E+00     0.0000000000E+00     0.0000000000E+00
     0.0000000000E+00     0.0000000000E+00     0.0000000000E+00     0.0000000000E+00
     0.0000000000E+00     0.0000000000E+00     0.0000000000E+00     0.0000000000E+00
     0.0000000000E+00     0.0000000000E+00     0.0000000000E+00     0.0000000000E+00
     0.0000000000E+00     0.0000000000E+00     0.0000000000E+00     0.0000000000E+00
     0.0000000000E+00     0.0000000000E+00     0.0000000000E+00     0.0000000000E+00
     0.0000000000E+00     0.0000000000E+00     0.0000000000E+00     0.0000000000E+00
     0.0000000000E+00     0.0000000000E+00     0.0000000000E+00     0.0000000000E+00
     0.0000000000E+00     0.0000000000E+00     0.0000000000E+00     0.0000000000E+00
     0.0000000000E+00     0.0000000000E+00     0.0000000000E+00     0.0000000000E+00
     0.0000000000E+00     0.0000000000E+00     0.0000000000E+00     0.0000000000E+00
     0.0000000000E+00     0.0000000000E+00     0.0000000000E+00     0.0000000000E+00
     0.0000000000E+00     0.0000000000E+00     0.0000000000E+00     0.0000000000E+00
     0.0000000000E+00     0.0000000000E+00     0.0000000000E+00     0.0000000000E+00
     0.0000000000E+00     0.0000000000E+00     0.0000000000E+00     0.0000000000E+00
     0.0000000000E+00     0.0000000000E+00     0.0000000000E+00     0.0000000000E+00
     0.0000000000E+00     0.0000000000E+00     0.0000000000E+00     0.0000000000E+00
     0.0000000000E+00     0.0000000000E+00     0.0000000000E+00     0.0000000000E+00
     0.0000000000E+00     0.0000000000E+00     0.0000000000E+00     0.0000000000E+00
     0.0000000000E+00     0.0000000000E+00     0.0000000000E+00     0.0000000000E+00
     0.0000000000E+00     0.0000000000E+00     0.0000000000E+00     0.0000000000E+00
     0.0000000000E+00     0.0000000000E+00     0.0000000000E+00     0.0000000000E+00
     0.0000000000E+00     0.0000000000E+00     0.0000000000E+00     0.0000000000E+00
     0.0000000000E+00     0.0000000000E+00     0.0000000000E+00     0.0000000000E+00
     0.0000000000E+00     0.0000000000E+00     0.0000000000E+00     0.0000000000E+00
     0.0000000000E+00     0.0000000000E+00     0.0000000000E+00     0.0000000000E+00
     0.0000000000E+00     0.0000000000E+00     0.0000000000E+00     0.0000000000E+00
     0.0000000000E+00     0.0000000000E+00     0.0000000000E+00     0.0000000000E+00
     0.0000000000E+00     0.0000000000E+00     0.0000000000E+00     0.0000000000E+00
     0.0000000000E+00     0.0000000000E+00     0.0000000000E+00     0.0000000000E+00
     0.0000000000E+00     0.0000000000E+00     0.0000000000E+00     0.0000000000E+00
     0.0000000000E+00     0.0000000000E+00     0.0000000000E+00     0.0000000000E+00
     0.0000000000E+00     0.0000000000E+00     0.0000000000E+00     0.0000000000E+00
     0.0000000000E+00     0.0000000000E+00     0.0000000000E+00     0.0000000000E+00
     0.0000000000E+00     0.0000000000E+00     0.0000000000E+00     0.0000000000E+00
     0.0000000000E+00     0.0000000000E+00     0.0000000000E+00     0.0000000000E+00
     0.0000000000E+00     0.0000000000E+00     0.0000000000E+00     0.0000000000E+00
     0.0000000000E+00     0.0000000000E+00     0.0000000000E+00     0.0000000000E+00
     0.0000000000E+00     0.0000000000E+00     0.0000000000E+00     0.0000000000E+00
     0.0000000000E+00     0.0000000000E+00     0.0000000000E+00     0.0000000000E+00
     0.0000000000E+00     0.0000000000E+00     0.0000000000E+00     0.0000000000E+00
     0.0000000000E+00     0.0000000000E+00     0.0000000000E+00     0.0000000000E+00
     0.0000000000E+00     0.0000000000E+00     0.0000000000E+00     0.0000000000E+00
     0.0000000000E+00     0.0000000000E+00     0.0000000000E+00     0.0000000000E+00
     0.0000000000E+00     0.0000000000E+00     0.0000000000E+00     0.0000000000E+00
     0.0000000000E+00     0.0000000000E+00     0.0000000000E+00     0.0000000000E+00
     0.0000000000E+00     0.0000000000E+00     0.0000000000E+00     0.0000000000E+00
     0.0000000000E+00     0.0000000000E+00     0.0000000000E+00     0.0000000000E+00
     0.0000000000E+00     0.0000000000E+00     0.0000000000E+00     0.0000000000E+00
     0.0000000000E+00     0.0000000000E+00     0.0000000000E+00     0.0000000000E+00
     0.0000000000E+00     0.0000000000E+00     0.0000000000E+00     0.0000000000E+00
     0.0000000000E+00     0.0000000000E+00     0.0000000000E+00     0.0000000000E+00
     0.0000000000E+00     0.0000000000E+00     0.0000000000E+00     0.0000000000E+00
     0.0000000000E+00     0.0000000000E+00     0.0000000000E+00     0.0000000000E+00
     0.0000000000E+00     0.0000000000E+00     0.0000000000E+00     0.0000000000E+00
     0.0000000000E+00     0.0000000000E+00     0.0000000000E+00     0.0000000000E+00
     0.0000000000E+00     0.0000000000E+00     0.0000000000E+00     0.0000000000E+00
     0.0000000000E+00     0.0000000000E+00     0.0000000000E+00     0.0000000000E+00
     0.0000000000E+00     0.0000000000E+00     0.0000000000E+00     0.0000000000E+00
     0.0000000000E+00     0.0000000000E+00     0.0000000000E+00     0.0000000000E+00
     0.0000000000E+00     0.0000000000E+00     0.0000000000E+00     0.0000000000E+00
     0.0000000000E+00     0.0000000000E+00     0.0000000000E+00     0.0000000000E+00
     0.0000000000E+00     0.0000000000E+00     0.0000000000E+00     0.0000000000E+00
     0.0000000000E+00     0.0000000000E+00     0.0000000000E+00     0.0000000000E+00
     0.0000000000E+00     0.0000000000E+00     0.0000000000E+00     0.0000000000E+00
     0.0000000000E+00     0.0000000000E+00     0.0000000000E+00     0.0000000000E+00
     0.0000000000E+00     0.0000000000E+00     0.0000000000E+00     0.0000000000E+00
     0.0000000000E+00     0.0000000000E+00     0.0000000000E+00     0.0000000000E+00
     0.0000000000E+00     0.0000000000E+00     0.0000000000E+00     0.0000000000E+00
     0.0000000000E+00     0.0000000000E+00     0.0000000000E+00     0.0000000000E+00
     0.0000000000E+00     0.0000000000E+00     0.0000000000E+00     0.0000000000E+00
     0.0000000000E+00     0.0000000000E+00     0.0000000000E+00     0.0000000000E+00
     0.0000000000E+00     0.0000000000E+00     0.0000000000E+00     0.0000000000E+00
     0.0000000000E+00     0.0000000000E+00     0.0000000000E+00     0.0000000000E+00
     0.0000000000E+00     0.0000000000E+00     0.0000000000E+00     0.0000000000E+00
     0.0000000000E+00     0.0000000000E+00     0.0000000000E+00     0.0000000000E+00
     0.0000000000E+00     0.0000000000E+00     0.0000000000E+00     0.0000000000E+00
     0.0000000000E+00     0.0000000000E+00     0.0000000000E+00     0.0000000000E+00
     0.0000000000E+00     0.0000000000E+00     0.0000000000E+00     0.0000000000E+00
     0.0000000000E+00     0.0000000000E+00     0.0000000000E+00     0.0000000000E+00
     0.0000000000E+00     0.0000000000E+00     0.0000000000E+00     0.0000000000E+00
     0.0000000000E+00     0.0000000000E+00     0.0000000000E+00     0.0000000000E+00
     0.0000000000E+00     0.0000000000E+00     0.0000000000E+00     0.0000000000E+00
     0.0000000000E+00     0.0000000000E+00     0.0000000000E+00     0.0000000000E+00
     0.0000000000E+00     0.0000000000E+00     0.0000000000E+00     0.0000000000E+00
     0.0000000000E+00     0.0000000000E+00     0.0000000000E+00     0.0000000000E+00
     0.0000000000E+00     0.0000000000E+00     0.0000000000E+00     0.0000000000E+00
     0.0000000000E+00     0.0000000000E+00     0.0000000000E+00     0.0000000000E+00
     0.0000000000E+00     0.0000000000E+00     0.0000000000E+00     0.0000000000E+00
     0.0000000000E+00     0.0000000000E+00     0.0000000000E+00     0.0000000000E+00
     0.0000000000E+00     0.0000000000E+00     0.0000000000E+00     0.0000000000E+00
     0.0000000000E+00     0.0000000000E+00     0.0000000000E+00     0.0000000000E+00
     0.0000000000E+00     0.0000000000E+00     0.0000000000E+00     0.0000000000E+00
     0.0000000000E+00     0.0000000000E+00     0.0000000000E+00     0.0000000000E+00
     0.0000000000E+00     0.0000000000E+00     0.0000000000E+00     0.0000000000E+00
     0.0000000000E+00     0.0000000000E+00     0.0000000000E+00     0.0000000000E+00
     0.0000000000E+00     0.0000000000E+00     0.0000000000E+00     0.0000000000E+00
     0.0000000000E+00     0.0000000000E+00     0.0000000000E+00     0.0000000000E+00
     0.0000000000E+00     0.0000000000E+00     0.0000000000E+00     0.0000000000E+00
     0.0000000000E+00     0.0000000000E+00     0.0000000000E+00     0.0000000000E+00
     0.0000000000E+00     0.0000000000E+00     0.0000000000E+00     0.0000000000E+00
     0.0000000000E+00     0.0000000000E+00     0.0000000000E+00     0.0000000000E+00
     0.0000000000E+00     0.0000000000E+00     0.0000000000E+00     0.0000000000E+00
     0.0000000000E+00     0.0000000000E+00     0.0000000000E+00     0.0000000000E+00
     0.0000000000E+00     0.0000000000E+00     0.0000000000E+00     0.0000000000E+00
     0.0000000000E+00     0.0000000000E+00     0.0000000000E+00     0.0000000000E+00
     0.0000000000E+00     0.0000000000E+00     0.0000000000E+00     0.0000000000E+00
     0.0000000000E+00     0.0000000000E+00     0.0000000000E+00     0.0000000000E+00
     0.0000000000E+00     0.0000000000E+00     0.0000000000E+00     0.0000000000E+00
     0.0000000000E+00     0.0000000000E+00     0.0000000000E+00     0.0000000000E+00
     0.0000000000E+00     0.0000000000E+00     0.0000000000E+00     0.0000000000E+00
     0.0000000000E+00     0.0000000000E+00     0.0000000000E+00     0.0000000000E+00
     0.0000000000E+00     0.0000000000E+00     0.0000000000E+00     0.0000000000E+00
     0.0000000000E+00     0.0000000000E+00     0.0000000000E+00     0.0000000000E+00
     0.0000000000E+00     0.0000000000E+00     0.0000000000E+00     0.0000000000E+00
     0.0000000000E+00     0.0000000000E+00     0.0000000000E+00     0.0000000000E+00
     0.0000000000E+00     0.0000000000E+00     0.0000000000E+00     0.0000000000E+00
     0.0000000000E+00     0.0000000000E+00     0.0000000000E+00     0.0000000000E+00
     0.0000000000E+00     0.0000000000E+00     0.0000000000E+00     0.0000000000E+00
     0.0000000000E+00     0.0000000000E+00     0.0000000000E+00     0.0000000000E+00
     0.0000000000E+00     0.0000000000E+00     0.0000000000E+00     0.0000000000E+00
     0.0000000000E+00     0.0000000000E+00     0.0000000000E+00     0.0000000000E+00
     0.0000000000E+00     0.0000000000E+00     0.0000000000E+00     0.0000000000E+00
     0.0000000000E+00     0.0000000000E+00     0.0000000000E+00     0.0000000000E+00
     0.0000000000E+00     0.0000000000E+00     0.0000000000E+00     0.0000000000E+00
     0.0000000000E+00     0.0000000000E+00     0.0000000000E+00     0.0000000000E+00
     0.0000000000E+00     0.0000000000E+00     0.0000000000E+00     0.0000000000E+00
     0.0000000000E+00     0.0000000000E+00     0.0000000000E+00     0.0000000000E+00
     0.0000000000E+00     0.0000000000E+00     0.0000000000E+00     0.0000000000E+00
     0.0000000000E+00     0.0000000000E+00     0.0000000000E+00     0.0000000000E+00
     0.0000000000E+00     0.0000000000E+00     0.0000000000E+00     0.0000000000E+00
     0.0000000000E+00     0.0000000000E+00     0.0000000000E+00     0.0000000000E+00
     0.0000000000E+00     0.0000000000E+00     0.0000000000E+00     0.0000000000E+00
     0.0000000000E+00     0.0000000000E+00     0.0000000000E+00     0.0000000000E+00
     0.0000000000E+00     0.0000000000E+00     0.0000000000E+00     0.0000000000E+00
     0.0000000000E+00     0.0000000000E+00     0.0000000000E+00     0.0000000000E+00
     0.0000000000E+00     0.0000000000E+00     0.0000000000E+00     0.0000000000E+00
     0.0000000000E+00     0.0000000000E+00     0.0000000000E+00     0.0000000000E+00
     0.0000000000E+00     0.0000000000E+00     0.0000000000E+00     0.0000000000E+00
     0.0000000000E+00     0.0000000000E+00     0.0000000000E+00     0.0000000000E+00
     0.0000000000E+00     0.0000000000E+00     0.0000000000E+00     0.0000000000E+00
     0.0000000000E+00     0.0000000000E+00     0.0000000000E+00     0.0000000000E+00
     0.0000000000E+00     0.0000000000E+00     0.0000000000E+00     0.0000000000E+00
     0.0000000000E+00     0.0000000000E+00     0.0000000000E+00     0.0000000000E+00
     0.0000000000E+00     0.0000000000E+00     0.0000000000E+00     0.0000000000E+00
     0.0000000000E+00     0.0000000000E+00     0.0000000000E+00     0.0000000000E+00
     0.0000000000E+00     0.0000000000E+00     0.0000000000E+00     0.0000000000E+00
     0.0000000000E+00     0.0000000000E+00     0.0000000000E+00     0.0000000000E+00
     0.0000000000E+00     0.0000000000E+00     0.0000000000E+00     0.0000000000E+00
     0.0000000000E+00     0.0000000000E+00     0.0000000000E+00     0.0000000000E+00
     0.0000000000E+00     0.0000000000E+00     0.0000000000E+00     0.0000000000E+00
     0.0000000000E+00     0.0000000000E+00     0.0000000000E+00     0.0000000000E+00
     0.0000000000E+00     0.0000000000E+00     0.0000000000E+00     0.0000000000E+00
     0.0000000000E+00     0.0000000000E+00     0.0000000000E+00     0.0000000000E+00
     0.0000000000E+00     0.0000000000E+00     0.0000000000E+00     0.0000000000E+00
     0.0000000000E+00     0.0000000000E+00     0.0000000000E+00     0.0000000000E+00
     0.0000000000E+00     0.0000000000E+00     0.0000000000E+00     0.0000000000E+00
     0.0000000000E+00     0.0000000000E+00     0.0000000000E+00     0.0000000000E+00
     0.0000000000E+00     0.0000000000E+00     0.0000000000E+00     0.0000000000E+00
     0.0000000000E+00     0.0000000000E+00     0.0000000000E+00     0.0000000000E+00
     0.0000000000E+00     0.0000000000E+00     0.0000000000E+00     0.0000000000E+00
     0.0000000000E+00     0.0000000000E+00     0.0000000000E+00     0.0000000000E+00
     0.0000000000E+00     0.0000000000E+00     0.0000000000E+00     0.0000000000E+00
     0.0000000000E+00     0.0000000000E+00     0.0000000000E+00     0.0000000000E+00
     0.0000000000E+00     0.0000000000E+00     0.0000000000E+00     0.0000000000E+00
     0.0000000000E+00     0.0000000000E+00     0.0000000000E+00     0.0000000000E+00
     0.0000000000E+00     0.0000000000E+00     0.0000000000E+00     0.0000000000E+00
     0.0000000000E+00     0.0000000000E+00     0.0000000000E+00     0.0000000000E+00
     0.0000000000E+00     0.0000000000E+00     0.0000000000E+00     0.0000000000E+00
     0.0000000000E+00     0.0000000000E+00     0.0000000000E+00     0.0000000000E+00
     0.0000000000E+00     0.0000000000E+00     0.0000000000E+00     0.0000000000E+00
     0.0000000000E+00     0.0000000000E+00     0.0000000000E+00     0.0000000000E+00
     0.0000000000E+00     0.0000000000E+00     0.0000000000E+00     0.0000000000E+00
     0.0000000000E+00     0.0000000000E+00     0.0000000000E+00     0.0000000000E+00
     0.0000000000E+00     0.0000000000E+00     0.0000000000E+00     0.0000000000E+00
     0.0000000000E+00     0.0000000000E+00     0.0000000000E+00     0.0000000000E+00
     0.0000000000E+00     0.0000000000E+00     0.0000000000E+00     0.0000000000E+00
     0.0000000000E+00     0.0000000000E+00     0.0000000000E+00     0.0000000000E+00
     0.0000000000E+00     0.0000000000E+00     0.0000000000E+00     0.0000000000E+00
     0.0000000000E+00     0.0000000000E+00     0.0000000000E+00     0.0000000000E+00
     0.0000000000E+00     0.0000000000E+00     0.0000000000E+00     0.0000000000E+00
     0.0000000000E+00     0.0000000000E+00     0.0000000000E+00     0.0000000000E+00
     0.0000000000E+00     0.0000000000E+00     0.0000000000E+00     0.0000000000E+00
     0.0000000000E+00     0.0000000000E+00     0.0000000000E+00     0.0000000000E+00
     0.0000000000E+00     0.0000000000E+00     0.0000000000E+00     0.0000000000E+00
     0.0000000000E+00     0.0000000000E+00     0.0000000000E+00     0.0000000000E+00
     0.0000000000E+00     0.0000000000E+00     0.0000000000E+00     0.0000000000E+00
     0.0000000000E+00     0.0000000000E+00     0.0000000000E+00     0.0000000000E+00
     0.0000000000E+00     0.0000000000E+00     0.0000000000E+00     0.0000000000E+00
     0.0000000000E+00     0.0000000000E+00     0.0000000000E+00     0.0000000000E+00
     0.0000000000E+00     0.0000000000E+00     0.0000000000E+00     0.0000000000E+00
     0.0000000000E+00     0.0000000000E+00     0.0000000000E+00     0.0000000000E+00
     0.0000000000E+00     0.0000000000E+00     0.0000000000E+00     0.0000000000E+00
     0.0000000000E+00     0.0000000000E+00     0.0000000000E+00     0.0000000000E+00
     0.0000000000E+00     0.0000000000E+00     0.0000000000E+00     0.0000000000E+00
     0.0000000000E+00     0.0000000000E+00     0.0000000000E+00     0.0000000000E+00
     0.0000000000E+00     0.0000000000E+00     0.0000000000E+00     0.0000000000E+00
     0.0000000000E+00     0.0000000000E+00     0.0000000000E+00     0.0000000000E+00
     0.0000000000E+00     0.0000000000E+00     0.0000000000E+00     0.0000000000E+00
     0.0000000000E+00     0.0000000000E+00     0.0000000000E+00     0.0000000000E+00
     0.0000000000E+00     0.0000000000E+00     0.0000000000E+00     0.0000000000E+00
     0.0000000000E+00     0.0000000000E+00     0.0000000000E+00     0.0000000000E+00
     0.0000000000E+00     0.0000000000E+00     0.0000000000E+00     0.0000000000E+00
     0.0000000000E+00     0.0000000000E+00     0.0000000000E+00     0.0000000000E+00
     0.0000000000E+00     0.0000000000E+00     0.0000000000E+00     0.0000000000E+00
     0.0000000000E+00     0.0000000000E+00     0.0000000000E+00     0.0000000000E+00
     0.0000000000E+00     0.0000000000E+00     0.0000000000E+00     0.0000000000E+00
     0.0000000000E+00     0.0000000000E+00     0.0000000000E+00     0.0000000000E+00
     0.0000000000E+00     0.0000000000E+00     0.0000000000E+00     0.0000000000E+00
     0.0000000000E+00     0.0000000000E+00     0.0000000000E+00     0.0000000000E+00
     0.0000000000E+00     0.0000000000E+00     0.0000000000E+00     0.0000000000E+00
     0.0000000000E+00     0.0000000000E+00     0.0000000000E+00     0.0000000000E+00
     0.0000000000E+00     0.0000000000E+00     0.0000000000E+00     0.0000000000E+00
     0.0000000000E+00     0.0000000000E+00     0.0000000000E+00     0.0000000000E+00
     0.0000000000E+00     0.0000000000E+00     0.0000000000E+00     0.0000000000E+00
     0.0000000000E+00     0.0000000000E+00     0.0000000000E+00     0.0000000000E+00
     0.0000000000E+00     0.0000000000E+00     0.0000000000E+00     0.0000000000E+00
     0.0000000000E+00     0.0000000000E+00     0.0000000000E+00     0.0000000000E+00
     0.0000000000E+00     0.0000000000E+00     0.0000000000E+00     0.0000000000E+00
     0.0000000000E+00     0.0000000000E+00     0.0000000000E+00     0.0000000000E+00
     0.0000000000E+00     0.0000000000E+00     0.0000000000E+00     0.0000000000E+00
     0.0000000000E+00     0.0000000000E+00     0.0000000000E+00     0.0000000000E+00
     0.0000000000E+00     0.0000000000E+00     0.0000000000E+00     0.0000000000E+00
     0.0000000000E+00     0.0000000000E+00     0.0000000000E+00     0.0000000000E+00
     0.0000000000E+00     0.0000000000E+00     0.0000000000E+00     0.0000000000E+00
     0.0000000000E+00     0.0000000000E+00     0.0000000000E+00     0.0000000000E+00
     0.0000000000E+00     0.0000000000E+00     0.0000000000E+00     0.0000000000E+00
     0.0000000000E+00     0.0000000000E+00     0.0000000000E+00     0.0000000000E+00
     0.0000000000E+00     0.0000000000E+00     0.0000000000E+00     0.0000000000E+00
     0.0000000000E+00     0.0000000000E+00     0.0000000000E+00     0.0000000000E+00
     0.0000000000E+00     0.0000000000E+00     0.0000000000E+00     0.0000000000E+00
     0.0000000000E+00     0.0000000000E+00     0.0000000000E+00     0.0000000000E+00
     0.0000000000E+00     0.0000000000E+00     0.0000000000E+00     0.0000000000E+00
     0.0000000000E+00     0.0000000000E+00     0.0000000000E+00     0.0000000000E+00
     0.0000000000E+00     0.0000000000E+00     0.0000000000E+00     0.0000000000E+00
     0.0000000000E+00     0.0000000000E+00     0.0000000000E+00     0.0000000000E+00
     0.0000000000E+00     0.0000000000E+00     0.0000000000E+00     0.0000000000E+00
     0.0000000000E+00     0.0000000000E+00     0.0000000000E+00     0.0000000000E+00
     0.0000000000E+00     0.0000000000E+00     0.0000000000E+00     0.0000000000E+00
     0.0000000000E+00     0.0000000000E+00     0.0000000000E+00     0.0000000000E+00
     0.0000000000E+00     0.0000000000E+00     0.0000000000E+00     0.0000000000E+00
     0.0000000000E+00     0.0000000000E+00     0.0000000000E+00     0.0000000000E+00
     0.0000000000E+00     0.0000000000E+00     0.0000000000E+00     0.0000000000E+00
     0.0000000000E+00     0.0000000000E+00     0.0000000000E+00     0.0000000000E+00
     0.0000000000E+00     0.0000000000E+00     0.0000000000E+00     0.0000000000E+00
     0.0000000000E+00     0.0000000000E+00     0.0000000000E+00     0.0000000000E+00
     0.0000000000E+00     0.0000000000E+00     0.0000000000E+00     0.0000000000E+00
     0.0000000000E+00     0.0000000000E+00     0.0000000000E+00     0.0000000000E+00
     0.0000000000E+00     0.0000000000E+00     0.0000000000E+00     0.0000000000E+00
     0.0000000000E+00     0.0000000000E+00     0.0000000000E+00     0.0000000000E+00
     0.0000000000E+00     0.0000000000E+00     0.0000000000E+00     0.0000000000E+00
     0.0000000000E+00     0.0000000000E+00     0.0000000000E+00     0.0000000000E+00
     0.0000000000E+00     0.0000000000E+00     0.0000000000E+00     0.0000000000E+00
     0.0000000000E+00     0.0000000000E+00     0.0000000000E+00     0.0000000000E+00
     0.0000000000E+00     0.0000000000E+00     0.0000000000E+00     0.0000000000E+00
     0.0000000000E+00     0.0000000000E+00     0.0000000000E+00     0.0000000000E+00
     0.0000000000E+00     0.0000000000E+00     0.0000000000E+00     0.0000000000E+00
     0.0000000000E+00     0.0000000000E+00     0.0000000000E+00     0.0000000000E+00
     0.0000000000E+00     0.0000000000E+00     0.0000000000E+00     0.0000000000E+00
     0.0000000000E+00     0.0000000000E+00     0.0000000000E+00     0.0000000000E+00
     0.0000000000E+00     0.0000000000E+00     0.0000000000E+00     0.0000000000E+00
     0.0000000000E+00     0.0000000000E+00     0.0000000000E+00     0.0000000000E+00
     0.0000000000E+00     0.0000000000E+00     0.0000000000E+00     0.0000000000E+00
     0.0000000000E+00     0.0000000000E+00     0.0000000000E+00     0.0000000000E+00
     0.0000000000E+00     0.0000000000E+00     0.0000000000E+00     0.0000000000E+00
     0.0000000000E+00     0.0000000000E+00     0.0000000000E+00     0.0000000000E+00
     0.0000000000E+00     0.0000000000E+00     0.0000000000E+00     0.0000000000E+00
     0.0000000000E+00     0.0000000000E+00     0.0000000000E+00     0.0000000000E+00
     0.0000000000E+00     0.0000000000E+00     0.0000000000E+00     0.0000000000E+00
     0.0000000000E+00     0.0000000000E+00     0.0000000000E+00     0.0000000000E+00
     0.0000000000E+00     0.0000000000E+00     0.0000000000E+00     0.0000000000E+00
     0.0000000000E+00     0.0000000000E+00     0.0000000000E+00     0.0000000000E+00
     0.0000000000E+00     0.0000000000E+00     0.0000000000E+00     0.0000000000E+00
     0.0000000000E+00     0.0000000000E+00     0.0000000000E+00     0.0000000000E+00
     0.0000000000E+00     0.0000000000E+00     0.0000000000E+00     0.0000000000E+00
     0.0000000000E+00     0.0000000000E+00     0.0000000000E+00     0.0000000000E+00
     0.0000000000E+00     0.0000000000E+00     0.0000000000E+00     0.0000000000E+00
     0.0000000000E+00     0.0000000000E+00     0.0000000000E+00     0.0000000000E+00
     0.0000000000E+00     0.0000000000E+00     0.0000000000E+00     0.0000000000E+00
     0.0000000000E+00     0.0000000000E+00     0.0000000000E+00     0.0000000000E+00
     0.0000000000E+00     0.0000000000E+00     0.0000000000E+00     0.0000000000E+00
     0.0000000000E+00     0.0000000000E+00     0.0000000000E+00     0.0000000000E+00
     0.0000000000E+00     0.0000000000E+00     0.0000000000E+00     0.0000000000E+00
     0.0000000000E+00     0.0000000000E+00     0.0000000000E+00     0.0000000000E+00
     0.0000000000E+00     0.0000000000E+00     0.0000000000E+00     0.0000000000E+00
     0.0000000000E+00     0.0000000000E+00     0.0000000000E+00     0.0000000000E+00
     0.0000000000E+00     0.0000000000E+00     0.0000000000E+00     0.0000000000E+00
     0.0000000000E+00     0.0000000000E+00     0.0000000000E+00     0.0000000000E+00
     0.0000000000E+00     0.0000000000E+00     0.0000000000E+00     0.0000000000E+00
     0.0000000000E+00     0.0000000000E+00     0.0000000000E+00     0.0000000000E+00
     0.0000000000E+00     0.0000000000E+00     0.0000000000E+00     0.0000000000E+00
     0.0000000000E+00     0.0000000000E+00     0.0000000000E+00     0.0000000000E+00
     0.0000000000E+00     0.0000000000E+00     0.0000000000E+00     0.0000000000E+00
     0.0000000000E+00     0.0000000000E+00     0.0000000000E+00     0.0000000000E+00
     0.0000000000E+00     0.0000000000E+00     0.0000000000E+00     0.0000000000E+00
     0.0000000000E+00     0.0000000000E+00     0.0000000000E+00     0.0000000000E+00
     0.0000000000E+00     0.0000000000E+00     0.0000000000E+00     0.0000000000E+00
     0.0000000000E+00     0.0000000000E+00     0.0000000000E+00     0.0000000000E+00
     0.0000000000E+00     0.0000000000E+00     0.0000000000E+00     0.0000000000E+00
     0.0000000000E+00     0.0000000000E+00     0.0000000000E+00     0.0000000000E+00
     0.0000000000E+00     0.0000000000E+00     0.0000000000E+00     0.0000000000E+00
     0.0000000000E+00     0.0000000000E+00     0.0000000000E+00     0.0000000000E+00
     0.0000000000E+00     0.0000000000E+00     0.0000000000E+00     0.0000000000E+00
     0.0000000000E+00     0.0000000000E+00     0.0000000000E+00     0.0000000000E+00
     0.0000000000E+00     0.0000000000E+00     0.0000000000E+00     0.0000000000E+00
     0.0000000000E+00     0.0000000000E+00     0.0000000000E+00     0.0000000000E+00
     0.0000000000E+00     0.0000000000E+00     0.0000000000E+00     0.0000000000E+00
     0.0000000000E+00     0.0000000000E+00     0.0000000000E+00     0.0000000000E+00
     0.0000000000E+00     0.0000000000E+00     0.0000000000E+00     0.0000000000E+00
     0.0000000000E+00     0.0000000000E+00     0.0000000000E+00     0.0000000000E+00
     0.0000000000E+00     0.0000000000E+00     0.0000000000E+00     0.0000000000E+00
     0.0000000000E+00     0.0000000000E+00     0.0000000000E+00     0.0000000000E+00
     0.0000000000E+00     0.0000000000E+00     0.0000000000E+00     0.0000000000E+00
     0.0000000000E+00     0.0000000000E+00     0.0000000000E+00     0.0000000000E+00
     0.0000000000E+00     0.0000000000E+00     0.0000000000E+00     0.0000000000E+00
     0.0000000000E+00     0.0000000000E+00     0.0000000000E+00     0.0000000000E+00
     0.0000000000E+00     0.0000000000E+00     0.0000000000E+00     0.0000000000E+00
     0.0000000000E+00     0.0000000000E+00     0.0000000000E+00     0.0000000000E+00
     0.0000000000E+00     0.0000000000E+00     0.0000000000E+00     0.0000000000E+00
     0.0000000000E+00     0.0000000000E+00     0.0000000000E+00     0.0000000000E+00
     0.0000000000E+00     0.0000000000E+00     0.0000000000E+00     0.0000000000E+00
     0.0000000000E+00     0.0000000000E+00     0.0000000000E+00     0.0000000000E+00
     0.0000000000E+00     0.0000000000E+00     0.0000000000E+00     0.0000000000E+00
     0.0000000000E+00     0.0000000000E+00     0.0000000000E+00     0.0000000000E+00
     0.0000000000E+00     0.0000000000E+00     0.0000000000E+00     0.0000000000E+00
     0.0000000000E+00     0.0000000000E+00     0.0000000000E+00     0.0000000000E+00
     0.0000000000E+00     0.0000000000E+00     0.0000000000E+00     0.0000000000E+00
     0.0000000000E+00     0.0000000000E+00     0.0000000000E+00     0.0000000000E+00
     0.0000000000E+00     0.0000000000E+00     0.0000000000E+00     0.0000000000E+00
     0.0000000000E+00     0.0000000000E+00     0.0000000000E+00     0.0000000000E+00
     0.0000000000E+00     0.0000000000E+00     0.0000000000E+00     0.0000000000E+00
     0.0000000000E+00     0.0000000000E+00     0.0000000000E+00     0.0000000000E+00
     0.0000000000E+00     0.0000000000E+00     0.0000000000E+00     0.0000000000E+00
     0.0000000000E+00     0.0000000000E+00     0.0000000000E+00     0.0000000000E+00
     0.0000000000E+00     0.0000000000E+00     0.0000000000E+00     0.0000000000E+00
     0.0000000000E+00     0.0000000000E+00     0.0000000000E+00     0.0000000000E+00
     0.0000000000E+00     0.0000000000E+00     0.0000000000E+00     0.0000000000E+00
     0.0000000000E+00     0.0000000000E+00     0.0000000000E+00     0.0000000000E+00
     0.0000000000E+00     0.0000000000E+00     0.0000000000E+00     0.0000000000E+00
     0.0000000000E+00     0.0000000000E+00     0.0000000000E+00     0.0000000000E+00
     0.0000000000E+00     0.0000000000E+00     0.0000000000E+00     0.0000000000E+00
     0.0000000000E+00     0.0000000000E+00     0.0000000000E+00     0.0000000000E+00
     0.0000000000E+00     0.0000000000E+00     0.0000000000E+00     0.0000000000E+00
     0.0000000000E+00     0.0000000000E+00     0.0000000000E+00     0.0000000000E+00
     0.0000000000E+00     0.0000000000E+00     0.0000000000E+00     0.0000000000E+00
     0.0000000000E+00     0.0000000000E+00     0.0000000000E+00     0.0000000000E+00
     0.0000000000E+00     0.0000000000E+00     0.0000000000E+00     0.0000000000E+00
     0.0000000000E+00     0.0000000000E+00     0.0000000000E+00     0.0000000000E+00
     0.0000000000E+00     0.0000000000E+00     0.0000000000E+00     0.0000000000E+00
     0.0000000000E+00     0.0000000000E+00     0.0000000000E+00     0.0000000000E+00
     0.0000000000E+00     0.0000000000E+00     0.0000000000E+00     0.0000000000E+00
     0.0000000000E+00     0.0000000000E+00     0.0000000000E+00     0.0000000000E+00
     0.0000000000E+00     0.0000000000E+00     0.0000000000E+00     0.0000000000E+00
     0.0000000000E+00     0.0000000000E+00     0.0000000000E+00     0.0000000000E+00
     0.0000000000E+00     0.0000000000E+00     0.0000000000E+00     0.0000000000E+00
     0.0000000000E+00     0.0000000000E+00     0.0000000000E+00     0.0000000000E+00
     0.0000000000E+00     0.0000000000E+00     0.0000000000E+00     0.0000000000E+00
     0.0000000000E+00     0.0000000000E+00     0.0000000000E+00     0.0000000000E+00
     0.0000000000E+00     0.0000000000E+00     0.0000000000E+00     0.0000000000E+00
     0.0000000000E+00     0.0000000000E+00     0.0000000000E+00     0.0000000000E+00
     0.0000000000E+00     0.0000000000E+00     0.0000000000E+00     0.0000000000E+00
     0.0000000000E+00     0.0000000000E+00     0.0000000000E+00     0.0000000000E+00
     0.0000000000E+00     0.0000000000E+00     0.0000000000E+00     0.0000000000E+00
     0.0000000000E+00     0.0000000000E+00     0.0000000000E+00     0.0000000000E+00
     0.0000000000E+00     0.0000000000E+00     0.0000000000E+00     0.0000000000E+00
     0.0000000000E+00     0.0000000000E+00     0.0000000000E+00     0.0000000000E+00
     0.0000000000E+00     0.0000000000E+00     0.0000000000E+00     0.0000000000E+00
     0.0000000000E+00     0.0000000000E+00     0.0000000000E+00     0.0000000000E+00
     0.0000000000E+00     0.0000000000E+00     0.0000000000E+00     0.0000000000E+00
     0.0000000000E+00     0.0000000000E+00     0.0000000000E+00     0.0000000000E+00
     0.0000000000E+00     0.0000000000E+00     0.0000000000E+00     0.0000000000E+00
     0.0000000000E+00     0.0000000000E+00     0.0000000000E+00     0.0000000000E+00
     0.0000000000E+00     0.0000000000E+00     0.0000000000E+00     0.0000000000E+00
     0.0000000000E+00     0.0000000000E+00     0.0000000000E+00     0.0000000000E+00
     0.0000000000E+00     0.0000000000E+00     0.0000000000E+00     0.0000000000E+00
     0.0000000000E+00     0.0000000000E+00     0.0000000000E+00     0.0000000000E+00
     0.0000000000E+00     0.0000000000E+00     0.0000000000E+00     0.0000000000E+00
     0.0000000000E+00     0.0000000000E+00     0.0000000000E+00     0.0000000000E+00
     0.0000000000E+00     0.0000000000E+00     0.0000000000E+00     0.0000000000E+00
     0.0000000000E+00     0.0000000000E+00     0.0000000000E+00     0.0000000000E+00
     0.0000000000E+00     0.0000000000E+00     0.0000000000E+00     0.0000000000E+00
     0.0000000000E+00     0.0000000000E+00     0.0000000000E+00     0.0000000000E+00
     0.0000000000E+00     0.0000000000E+00     0.0000000000E+00     0.0000000000E+00
     0.0000000000E+00     0.0000000000E+00     0.0000000000E+00     0.0000000000E+00
     0.0000000000E+00     0.0000000000E+00     0.0000000000E+00     0.0000000000E+00
     0.0000000000E+00     0.0000000000E+00     0.0000000000E+00     0.0000000000E+00
     0.0000000000E+00     0.0000000000E+00     0.0000000000E+00     0.0000000000E+00
     0.0000000000E+00     0.0000000000E+00     0.0000000000E+00     0.0000000000E+00
     0.0000000000E+00     0.0000000000E+00     0.0000000000E+00     0.0000000000E+00
     0.0000000000E+00     0.0000000000E+00     0.0000000000E+00     0.0000000000E+00
     0.0000000000E+00     0.0000000000E+00     0.0000000000E+00     0.0000000000E+00
     0.0000000000E+00     0.0000000000E+00     0.0000000000E+00     0.0000000000E+00
     0.0000000000E+00     0.0000000000E+00     0.0000000000E+00     0.0000000000E+00
     0.0000000000E+00     0.0000000000E+00     0.0000000000E+00     0.0000000000E+00
     0.0000000000E+00     0.0000000000E+00     0.0000000000E+00     0.0000000000E+00
     0.0000000000E+00     0.0000000000E+00     0.0000000000E+00     0.0000000000E+00
     0.0000000000E+00     0.0000000000E+00     0.0000000000E+00     0.0000000000E+00
     0.0000000000E+00     0.0000000000E+00     0.0000000000E+00     0.0000000000E+00
     0.0000000000E+00     0.0000000000E+00     0.0000000000E+00     0.0000000000E+00
     0.0000000000E+00     0.0000000000E+00     0.0000000000E+00     0.0000000000E+00
     0.0000000000E+00     0.0000000000E+00     0.0000000000E+00     0.0000000000E+00
     0.0000000000E+00     0.0000000000E+00     0.0000000000E+00     0.0000000000E+00
     0.0000000000E+00     0.0000000000E+00     0.0000000000E+00     0.0000000000E+00
     0.0000000000E+00     0.0000000000E+00     0.0000000000E+00     0.0000000000E+00
     0.0000000000E+00     0.0000000000E+00     0.0000000000E+00     0.0000000000E+00
     0.0000000000E+00     0.0000000000E+00     0.0000000000E+00     0.0000000000E+00
     0.0000000000E+00     0.0000000000E+00     0.0000000000E+00     0.0000000000E+00
     0.0000000000E+00     0.0000000000E+00     0.0000000000E+00     0.0000000000E+00
     0.0000000000E+00     0.0000000000E+00     0.0000000000E+00     0.0000000000E+00
     0.0000000000E+00     0.0000000000E+00     0.0000000000E+00     0.0000000000E+00
     0.0000000000E+00     0.0000000000E+00     0.0000000000E+00     0.0000000000E+00
     0.0000000000E+00     0.0000000000E+00     0.0000000000E+00     0.0000000000E+00
     0.0000000000E+00     0.0000000000E+00     0.0000000000E+00     0.0000000000E+00
     0.0000000000E+00     0.0000000000E+00     0.0000000000E+00     0.0000000000E+00
     0.0000000000E+00     0.0000000000E+00     0.0000000000E+00     0.0000000000E+00
     0.0000000000E+00     0.0000000000E+00     0.0000000000E+00     0.0000000000E+00
     0.0000000000E+00     0.0000000000E+00     0.0000000000E+00     0.0000000000E+00
     0.0000000000E+00     0.0000000000E+00     0.0000000000E+00     0.0000000000E+00
     0.0000000000E+00     0.0000000000E+00     0.0000000000E+00     0.0000000000E+00
     0.0000000000E+00     0.0000000000E+00     0.0000000000E+00     0.0000000000E+00
     0.0000000000E+00     0.0000000000E+00     0.0000000000E+00     0.0000000000E+00
     0.0000000000E+00     0.0000000000E+00     0.0000000000E+00     0.0000000000E+00
     0.0000000000E+00     0.0000000000E+00     0.0000000000E+00     0.0000000000E+00
     0.0000000000E+00     0.0000000000E+00     0.0000000000E+00     0.0000000000E+00
     0.0000000000E+00     0.0000000000E+00     0.0000000000E+00     0.0000000000E+00
     0.0000000000E+00     0.0000000000E+00     0.0000000000E+00     0.0000000000E+00
     0.0000000000E+00     0.0000000000E+00     0.0000000000E+00     0.0000000000E+00
     0.0000000000E+00     0.0000000000E+00     0.0000000000E+00     0.0000000000E+00
     0.0000000000E+00     0.0000000000E+00     0.0000000000E+00     0.0000000000E+00
     0.0000000000E+00     0.0000000000E+00     0.0000000000E+00     0.0000000000E+00
     0.0000000000E+00     0.0000000000E+00     0.0000000000E+00     0.0000000000E+00
     0.0000000000E+00     0.0000000000E+00     0.0000000000E+00     0.0000000000E+00
     0.0000000000E+00     0.0000000000E+00     0.0000000000E+00     0.0000000000E+00
     0.0000000000E+00     0.0000000000E+00     0.0000000000E+00     0.0000000000E+00
     0.0000000000E+00     0.0000000000E+00     0.0000000000E+00     0.0000000000E+00
     0.0000000000E+00     0.0000000000E+00     0.0000000000E+00     0.0000000000E+00
     0.0000000000E+00     0.0000000000E+00     0.0000000000E+00     0.0000000000E+00
     0.0000000000E+00     0.0000000000E+00     0.0000000000E+00     0.0000000000E+00
     0.0000000000E+00     0.0000000000E+00     0.0000000000E+00     0.0000000000E+00
     0.0000000000E+00     0.0000000000E+00     0.0000000000E+00     0.0000000000E+00
     0.0000000000E+00     0.0000000000E+00     0.0000000000E+00     0.0000000000E+00
     0.0000000000E+00     0.0000000000E+00     0.0000000000E+00     0.0000000000E+00
     0.0000000000E+00     0.0000000000E+00     0.0000000000E+00     0.0000000000E+00
     0.0000000000E+00     0.0000000000E+00     0.0000000000E+00     0.0000000000E+00
     0.0000000000E+00     0.0000000000E+00     0.0000000000E+00     0.0000000000E+00
     0.0000000000E+00     0.0000000000E+00     0.0000000000E+00     0.0000000000E+00
     0.0000000000E+00     0.0000000000E+00     0.0000000000E+00     0.0000000000E+00
     0.0000000000E+00     0.0000000000E+00     0.0000000000E+00     0.0000000000E+00
     0.0000000000E+00     0.0000000000E+00     0.0000000000E+00     0.0000000000E+00
     0.0000000000E+00     0.0000000000E+00     0.0000000000E+00     0.0000000000E+00
     0.0000000000E+00     0.0000000000E+00     0.0000000000E+00     0.0000000000E+00
     0.0000000000E+00     0.0000000000E+00     0.0000000000E+00     0.0000000000E+00
     0.0000000000E+00     0.0000000000E+00     0.0000000000E+00     0.0000000000E+00
     0.0000000000E+00     0.0000000000E+00     0.0000000000E+00     0.0000000000E+00
     0.0000000000E+00     0.0000000000E+00     0.0000000000E+00     0.0000000000E+00
     0.0000000000E+00     0.0000000000E+00     0.0000000000E+00     0.0000000000E+00
     0.0000000000E+00     0.0000000000E+00     0.0000000000E+00     0.0000000000E+00
     0.0000000000E+00     0.0000000000E+00     0.0000000000E+00     0.0000000000E+00
     0.0000000000E+00     0.0000000000E+00     0.0000000000E+00     0.0000000000E+00
     0.0000000000E+00     0.0000000000E+00     0.0000000000E+00     0.0000000000E+00
     0.0000000000E+00     0.0000000000E+00     0.0000000000E+00     0.0000000000E+00
     0.0000000000E+00     0.0000000000E+00     0.0000000000E+00     0.0000000000E+00
     0.0000000000E+00     0.0000000000E+00     0.0000000000E+00     0.0000000000E+00
     0.0000000000E+00     0.0000000000E+00     0.0000000000E+00     0.0000000000E+00
     0.0000000000E+00     0.0000000000E+00     0.0000000000E+00     0.0000000000E+00
     0.0000000000E+00     0.0000000000E+00     0.0000000000E+00     0.0000000000E+00
     0.0000000000E+00     0.0000000000E+00     0.0000000000E+00     0.0000000000E+00
     0.0000000000E+00     0.0000000000E+00     0.0000000000E+00     0.0000000000E+00
     0.0000000000E+00     0.0000000000E+00     0.0000000000E+00     0.0000000000E+00
     0.0000000000E+00     0.0000000000E+00     0.0000000000E+00     0.0000000000E+00
     0.0000000000E+00     0.0000000000E+00     0.0000000000E+00     0.0000000000E+00
     0.0000000000E+00     0.0000000000E+00     0.0000000000E+00     0.0000000000E+00
     0.0000000000E+00     0.0000000000E+00     0.0000000000E+00     0.0000000000E+00
     0.0000000000E+00     0.0000000000E+00     0.0000000000E+00     0.0000000000E+00
     0.0000000000E+00     0.0000000000E+00     0.0000000000E+00     0.0000000000E+00
     0.0000000000E+00     0.0000000000E+00     0.0000000000E+00     0.0000000000E+00
     0.0000000000E+00     0.0000000000E+00     0.0000000000E+00     0.0000000000E+00
     0.0000000000E+00     0.0000000000E+00     0.0000000000E+00     0.0000000000E+00
     0.0000000000E+00     0.0000000000E+00     0.0000000000E+00     0.0000000000E+00
     0.0000000000E+00     0.0000000000E+00     0.0000000000E+00     0.0000000000E+00
     0.0000000000E+00     0.0000000000E+00     0.0000000000E+00     0.0000000000E+00
     0.0000000000E+00     0.0000000000E+00     0.0000000000E+00     0.0000000000E+00
     0.0000000000E+00     0.0000000000E+00     0.0000000000E+00     0.0000000000E+00
     0.0000000000E+00     0.0000000000E+00     0.0000000000E+00     0.0000000000E+00
     0.0000000000E+00     0.0000000000E+00     0.0000000000E+00     0.0000000000E+00
     0.0000000000E+00     0.0000000000E+00     0.0000000000E+00     0.0000000000E+00
     0.0000000000E+00     0.0000000000E+00     0.0000000000E+00     0.0000000000E+00
     0.0000000000E+00     0.0000000000E+00     0.0000000000E+00     0.0000000000E+00
     0.0000000000E+00     0.0000000000E+00     0.0000000000E+00     0.0000000000E+00
     0.0000000000E+00     0.0000000000E+00     0.0000000000E+00     0.0000000000E+00
     0.0000000000E+00     0.0000000000E+00     0.0000000000E+00     0.0000000000E+00
     0.0000000000E+00     0.0000000000E+00     0.0000000000E+00     0.0000000000E+00
     0.0000000000E+00     0.0000000000E+00     0.0000000000E+00     0.0000000000E+00
     0.0000000000E+00     0.0000000000E+00     0.0000000000E+00     0.0000000000E+00
     0.0000000000E+00     0.0000000000E+00     0.0000000000E+00     0.0000000000E+00
     0.0000000000E+00     0.0000000000E+00     0.0000000000E+00     0.0000000000E+00
     0.0000000000E+00     0.0000000000E+00     0.0000000000E+00     0.0000000000E+00
     0.0000000000E+00     0.0000000000E+00     0.0000000000E+00     0.0000000000E+00
     0.0000000000E+00     0.0000000000E+00     0.0000000000E+00     0.0000000000E+00
     0.0000000000E+00     0.0000000000E+00     0.0000000000E+00     0.0000000000E+00
     0.0000000000E+00     0.0000000000E+00     0.0000000000E+00     0.0000000000E+00
     0.0000000000E+00     0.0000000000E+00     0.0000000000E+00     0.0000000000E+00
     0.0000000000E+00     0.0000000000E+00     0.0000000000E+00     0.0000000000E+00
     0.0000000000E+00     0.0000000000E+00     0.0000000000E+00     0.0000000000E+00
     0.0000000000E+00     0.0000000000E+00     0.0000000000E+00     0.0000000000E+00
     0.0000000000E+00     0.0000000000E+00     0.0000000000E+00     0.0000000000E+00
     0.0000000000E+00     0.0000000000E+00     0.0000000000E+00     0.0000000000E+00
     0.0000000000E+00     0.0000000000E+00     0.0000000000E+00     0.0000000000E+00
     0.0000000000E+00     0.0000000000E+00     0.0000000000E+00     0.0000000000E+00
     0.0000000000E+00     0.0000000000E+00     0.0000000000E+00     0.0000000000E+00
     0.0000000000E+00     0.0000000000E+00     0.0000000000E+00     0.0000000000E+00
     0.0000000000E+00     0.0000000000E+00     0.0000000000E+00     0.0000000000E+00
     0.0000000000E+00     0.0000000000E+00     0.0000000000E+00     0.0000000000E+00
     0.0000000000E+00     0.0000000000E+00     0.0000000000E+00     0.0000000000E+00
     0.0000000000E+00     0.0000000000E+00     0.0000000000E+00     0.0000000000E+00
     0.0000000000E+00     0.0000000000E+00     0.0000000000E+00     0.0000000000E+00
     0.0000000000E+00     0.0000000000E+00     0.0000000000E+00     0.0000000000E+00
     0.0000000000E+00     0.0000000000E+00     0.0000000000E+00     0.0000000000E+00
     0.0000000000E+00     0.0000000000E+00     0.0000000000E+00     0.0000000000E+00
     0.0000000000E+00     0.0000000000E+00     0.0000000000E+00     0.0000000000E+00
     0.0000000000E+00     0.0000000000E+00     0.0000000000E+00     0.0000000000E+00
     0.0000000000E+00     0.0000000000E+00     0.0000000000E+00     0.0000000000E+00
     0.0000000000E+00     0.0000000000E+00     0.0000000000E+00     0.0000000000E+00
     0.0000000000E+00     0.0000000000E+00     0.0000000000E+00     0.0000000000E+00
     0.0000000000E+00     0.0000000000E+00     0.0000000000E+00     0.0000000000E+00
     0.0000000000E+00     0.0000000000E+00     0.0000000000E+00     0.0000000000E+00
     0.0000000000E+00     0.0000000000E+00     0.0000000000E+00     0.0000000000E+00
     0.0000000000E+00     0.0000000000E+00     0.0000000000E+00     0.0000000000E+00
     0.0000000000E+00     0.0000000000E+00     0.0000000000E+00     0.0000000000E+00
     0.0000000000E+00     0.0000000000E+00     0.0000000000E+00     0.0000000000E+00
     0.0000000000E+00     0.0000000000E+00     0.0000000000E+00     0.0000000000E+00
     0.0000000000E+00     0.0000000000E+00     0.0000000000E+00     0.0000000000E+00
     0.0000000000E+00     0.0000000000E+00     0.0000000000E+00     0.0000000000E+00
     0.0000000000E+00     0.0000000000E+00     0.0000000000E+00     0.0000000000E+00
     0.0000000000E+00     0.0000000000E+00     0.0000000000E+00     0.0000000000E+00
     0.0000000000E+00     0.0000000000E+00     0.0000000000E+00     0.0000000000E+00
     0.0000000000E+00     0.0000000000E+00     0.0000000000E+00     0.0000000000E+00
     0.0000000000E+00     0.0000000000E+00     0.0000000000E+00     0.0000000000E+00
     0.0000000000E+00     0.0000000000E+00     0.0000000000E+00     0.0000000000E+00
     0.0000000000E+00     0.0000000000E+00     0.0000000000E+00     0.0000000000E+00
     0.0000000000E+00     0.0000000000E+00     0.0000000000E+00     0.0000000000E+00
     0.0000000000E+00     0.0000000000E+00     0.0000000000E+00     0.0000000000E+00
     0.0000000000E+00     0.0000000000E+00     0.0000000000E+00     0.0000000000E+00
     0.0000000000E+00     0.0000000000E+00     0.0000000000E+00     0.0000000000E+00
     0.0000000000E+00     0.0000000000E+00     0.0000000000E+00     0.0000000000E+00
     0.0000000000E+00     0.0000000000E+00     0.0000000000E+00     0.0000000000E+00
     0.0000000000E+00     0.0000000000E+00     0.0000000000E+00     0.0000000000E+00
     0.0000000000E+00     0.0000000000E+00     0.0000000000E+00     0.0000000000E+00
     0.0000000000E+00     0.0000000000E+00     0.0000000000E+00     0.0000000000E+00
     0.0000000000E+00     0.0000000000E+00     0.0000000000E+00     0.0000000000E+00
     0.0000000000E+00     0.0000000000E+00     0.0000000000E+00     0.0000000000E+00
     0.0000000000E+00     0.0000000000E+00     0.0000000000E+00     0.0000000000E+00
     0.0000000000E+00     0.0000000000E+00     0.0000000000E+00     0.0000000000E+00
     0.0000000000E+00     0.0000000000E+00     0.0000000000E+00     0.0000000000E+00
     0.0000000000E+00     0.0000000000E+00     0.0000000000E+00     0.0000000000E+00
     0.0000000000E+00     0.0000000000E+00     0.0000000000E+00     0.0000000000E+00
     0.0000000000E+00     0.0000000000E+00     0.0000000000E+00     0.0000000000E+00
     0.0000000000E+00     0.0000000000E+00     0.0000000000E+00     0.0000000000E+00
     0.0000000000E+00     0.0000000000E+00     0.0000000000E+00     0.0000000000E+00
     0.0000000000E+00     0.0000000000E+00     0.0000000000E+00     0.0000000000E+00
     0.0000000000E+00     0.0000000000E+00     0.0000000000E+00     0.0000000000E+00
     0.0000000000E+00     0.0000000000E+00     0.0000000000E+00     0.0000000000E+00
     0.0000000000E+00     0.0000000000E+00     0.0000000000E+00     0.0000000000E+00
     0.0000000000E+00     0.0000000000E+00     0.0000000000E+00     0.0000000000E+00
     0.0000000000E+00     0.0000000000E+00     0.0000000000E+00     0.0000000000E+00
     0.0000000000E+00     0.0000000000E+00     0.0000000000E+00     0.0000000000E+00
     0.0000000000E+00     0.0000000000E+00     0.0000000000E+00     0.0000000000E+00
     0.0000000000E+00     0.0000000000E+00     0.0000000000E+00     0.0000000000E+00
     0.0000000000E+00     0.0000000000E+00     0.0000000000E+00     0.0000000000E+00
     0.0000000000E+00     0.0000000000E+00     0.0000000000E+00     0.0000000000E+00
     0.0000000000E+00     0.0000000000E+00     0.0000000000E+00     0.0000000000E+00
     0.0000000000E+00     0.0000000000E+00     0.0000000000E+00     0.0000000000E+00
     0.0000000000E+00     0.0000000000E+00     0.0000000000E+00     0.0000000000E+00
     0.0000000000E+00     0.0000000000E+00     0.0000000000E+00     0.0000000000E+00
     0.0000000000E+00     0.0000000000E+00     0.0000000000E+00     0.0000000000E+00
     0.0000000000E+00     0.0000000000E+00     0.0000000000E+00     0.0000000000E+00
     0.0000000000E+00     0.0000000000E+00     0.0000000000E+00     0.0000000000E+00
     0.0000000000E+00     0.0000000000E+00     0.0000000000E+00     0.0000000000E+00
     0.0000000000E+00     0.0000000000E+00     0.0000000000E+00     0.0000000000E+00
     0.0000000000E+00     0.0000000000E+00     0.0000000000E+00     0.0000000000E+00
     0.0000000000E+00     0.0000000000E+00     0.0000000000E+00     0.0000000000E+00
     0.0000000000E+00     0.0000000000E+00     0.0000000000E+00     0.0000000000E+00
     0.0000000000E+00     0.0000000000E+00     0.0000000000E+00     0.0000000000E+00
     0.0000000000E+00     0.0000000000E+00     0.0000000000E+00     0.0000000000E+00
     0.0000000000E+00     0.0000000000E+00     0.0000000000E+00     0.0000000000E+00
     0.0000000000E+00     0.0000000000E+00     0.0000000000E+00     0.0000000000E+00
     0.0000000000E+00     0.0000000000E+00     0.0000000000E+00     0.0000000000E+00
     0.0000000000E+00     0.0000000000E+00     0.0000000000E+00     0.0000000000E+00
     0.0000000000E+00     0.0000000000E+00     0.0000000000E+00     0.0000000000E+00
     0.0000000000E+00     0.0000000000E+00     0.0000000000E+00     0.0000000000E+00
     0.0000000000E+00     0.0000000000E+00     0.0000000000E+00     0.0000000000E+00
     0.0000000000E+00     0.0000000000E+00     0.0000000000E+00     0.0000000000E+00
     0.0000000000E+00     0.0000000000E+00     0.0000000000E+00     0.0000000000E+00
     0.0000000000E+00     0.0000000000E+00     0.0000000000E+00     0.0000000000E+00
     0.0000000000E+00     0.0000000000E+00     0.0000000000E+00     0.0000000000E+00
     0.0000000000E+00     0.0000000000E+00     0.0000000000E+00     0.0000000000E+00
     0.0000000000E+00     0.0000000000E+00     0.0000000000E+00     0.0000000000E+00
     0.0000000000E+00     0.0000000000E+00     0.0000000000E+00     0.0000000000E+00
     0.0000000000E+00     0.0000000000E+00     0.0000000000E+00     0.0000000000E+00
     0.0000000000E+00     0.0000000000E+00     0.0000000000E+00     0.0000000000E+00
     0.0000000000E+00     0.0000000000E+00     0.0000000000E+00     0.0000000000E+00
     0.0000000000E+00     0.0000000000E+00     0.0000000000E+00     0.0000000000E+00
     0.0000000000E+00     0.0000000000E+00     0.0000000000E+00     0.0000000000E+00
     0.0000000000E+00     0.0000000000E+00     0.0000000000E+00     0.0000000000E+00
     0.0000000000E+00     0.0000000000E+00     0.0000000000E+00     0.0000000000E+00
     0.0000000000E+00     0.0000000000E+00     0.0000000000E+00     0.0000000000E+00
     0.0000000000E+00     0.0000000000E+00     0.0000000000E+00     0.0000000000E+00
     0.0000000000E+00     0.0000000000E+00     0.0000000000E+00     0.0000000000E+00
     0.0000000000E+00     0.0000000000E+00     0.0000000000E+00     0.0000000000E+00
     0.0000000000E+00     0.0000000000E+00     0.0000000000E+00     0.0000000000E+00
     0.0000000000E+00     0.0000000000E+00     0.0000000000E+00     0.0000000000E+00
     0.0000000000E+00     0.0000000000E+00     0.0000000000E+00     0.0000000000E+00
     0.0000000000E+00     0.0000000000E+00     0.0000000000E+00     0.0000000000E+00
     0.0000000000E+00     0.0000000000E+00     0.0000000000E+00     0.0000000000E+00
     0.0000000000E+00     0.0000000000E+00     0.0000000000E+00     0.0000000000E+00
     0.0000000000E+00     0.0000000000E+00     0.0000000000E+00     0.0000000000E+00
     0.0000000000E+00     0.0000000000E+00     0.0000000000E+00     0.0000000000E+00
     0.0000000000E+00     0.0000000000E+00     0.0000000000E+00     0.0000000000E+00
     0.0000000000E+00     0.0000000000E+00     0.0000000000E+00     0.0000000000E+00
     0.0000000000E+00     0.0000000000E+00     0.0000000000E+00     0.0000000000E+00
     0.0000000000E+00     0.0000000000E+00     0.0000000000E+00     0.0000000000E+00
     0.0000000000E+00     0.0000000000E+00     0.0000000000E+00     0.0000000000E+00
     0.0000000000E+00     0.0000000000E+00     0.0000000000E+00     0.0000000000E+00
     0.0000000000E+00     0.0000000000E+00     0.0000000000E+00     0.0000000000E+00
     0.0000000000E+00     0.0000000000E+00     0.0000000000E+00     0.0000000000E+00
     0.0000000000E+00     0.0000000000E+00     0.0000000000E+00     0.0000000000E+00
     0.0000000000E+00     0.0000000000E+00     0.0000000000E+00     0.0000000000E+00
     0.0000000000E+00     0.0000000000E+00     0.0000000000E+00     0.0000000000E+00
     0.0000000000E+00     0.0000000000E+00     0.0000000000E+00     0.0000000000E+00
     0.0000000000E+00     0.0000000000E+00     0.0000000000E+00     0.0000000000E+00
     0.0000000000E+00     0.0000000000E+00     0.0000000000E+00     0.0000000000E+00
     0.0000000000E+00     0.0000000000E+00     0.0000000000E+00     0.0000000000E+00
     0.0000000000E+00     0.0000000000E+00     0.0000000000E+00     0.0000000000E+00
     0.0000000000E+00     0.0000000000E+00     0.0000000000E+00     0.0000000000E+00
     0.0000000000E+00     0.0000000000E+00     0.0000000000E+00     0.0000000000E+00
     0.0000000000E+00     0.0000000000E+00     0.0000000000E+00     0.0000000000E+00
     0.0000000000E+00     0.0000000000E+00     0.0000000000E+00     0.0000000000E+00
     0.0000000000E+00     0.0000000000E+00     0.0000000000E+00     0.0000000000E+00
     0.0000000000E+00     0.0000000000E+00     0.0000000000E+00     0.0000000000E+00
     0.0000000000E+00     0.0000000000E+00     0.0000000000E+00     0.0000000000E+00
     0.0000000000E+00     0.0000000000E+00     0.0000000000E+00     0.0000000000E+00
     0.0000000000E+00     0.0000000000E+00     0.0000000000E+00     0.0000000000E+00
     0.0000000000E+00     0.0000000000E+00     0.0000000000E+00     0.0000000000E+00
     0.0000000000E+00     0.0000000000E+00     0.0000000000E+00     0.0000000000E+00
     0.0000000000E+00     0.0000000000E+00     0.0000000000E+00     0.0000000000E+00
     0.0000000000E+00     0.0000000000E+00     0.0000000000E+00     0.0000000000E+00
     0.0000000000E+00     0.0000000000E+00     0.0000000000E+00     0.0000000000E+00
     0.0000000000E+00     0.0000000000E+00     0.0000000000E+00     0.0000000000E+00
     0.0000000000E+00     0.0000000000E+00     0.0000000000E+00     0.0000000000E+00
     0.0000000000E+00     0.0000000000E+00     0.0000000000E+00     0.0000000000E+00
     0.0000000000E+00     0.0000000000E+00     0.0000000000E+00     0.0000000000E+00
     0.0000000000E+00     0.0000000000E+00     0.0000000000E+00     0.0000000000E+00
     0.0000000000E+00     0.0000000000E+00     0.0000000000E+00     0.0000000000E+00
     0.0000000000E+00     0.0000000000E+00     0.0000000000E+00     0.0000000000E+00
     0.0000000000E+00     0.0000000000E+00     0.0000000000E+00     0.0000000000E+00
     0.0000000000E+00     0.0000000000E+00     0.0000000000E+00     0.0000000000E+00
     0.0000000000E+00     0.0000000000E+00     0.0000000000E+00     0.0000000000E+00
     0.0000000000E+00     0.0000000000E+00     0.0000000000E+00     0.0000000000E+00
     0.0000000000E+00     0.0000000000E+00     0.0000000000E+00     0.0000000000E+00
     0.0000000000E+00     0.0000000000E+00     0.0000000000E+00     0.0000000000E+00
     0.0000000000E+00     0.0000000000E+00     0.0000000000E+00     0.0000000000E+00
     0.0000000000E+00     0.0000000000E+00     0.0000000000E+00     0.0000000000E+00
     0.0000000000E+00     0.0000000000E+00     0.0000000000E+00     0.0000000000E+00
     0.0000000000E+00     0.0000000000E+00     0.0000000000E+00     0.0000000000E+00
     0.0000000000E+00     0.0000000000E+00     0.0000000000E+00     0.0000000000E+00
     0.0000000000E+00     0.0000000000E+00     0.0000000000E+00     0.0000000000E+00
     0.0000000000E+00     0.0000000000E+00     0.0000000000E+00     0.0000000000E+00
     0.0000000000E+00     0.0000000000E+00     0.0000000000E+00     0.0000000000E+00
     0.0000000000E+00     0.0000000000E+00     0.0000000000E+00     0.0000000000E+00
     0.0000000000E+00     0.0000000000E+00     0.0000000000E+00     0.0000000000E+00
     0.0000000000E+00     0.0000000000E+00     0.0000000000E+00     0.0000000000E+00
     0.0000000000E+00     0.0000000000E+00     0.0000000000E+00     0.0000000000E+00
     0.0000000000E+00     0.0000000000E+00     0.0000000000E+00     0.0000000000E+00
     0.0000000000E+00     0.0000000000E+00     0.0000000000E+00     0.0000000000E+00
     0.0000000000E+00     0.0000000000E+00     0.0000000000E+00     0.0000000000E+00
     0.0000000000E+00     0.0000000000E+00     0.0000000000E+00     0.0000000000E+00
     0.0000000000E+00     0.0000000000E+00     0.0000000000E+00     0.0000000000E+00
     0.0000000000E+00     0.0000000000E+00     0.0000000000E+00     0.0000000000E+00
     0.0000000000E+00     0.0000000000E+00     0.0000000000E+00     0.0000000000E+00
     0.0000000000E+00     0.0000000000E+00     0.0000000000E+00     0.0000000000E+00
     0.0000000000E+00     0.0000000000E+00     0.0000000000E+00     0.0000000000E+00
     0.0000000000E+00     0.0000000000E+00     0.0000000000E+00     0.0000000000E+00
     0.0000000000E+00     0.0000000000E+00     0.0000000000E+00     0.0000000000E+00
     0.0000000000E+00     0.0000000000E+00     0.0000000000E+00     0.0000000000E+00
     0.0000000000E+00     0.0000000000E+00     0.0000000000E+00     0.0000000000E+00
     0.0000000000E+00     0.0000000000E+00     0.0000000000E+00     0.0000000000E+00
     0.0000000000E+00     0.0000000000E+00     0.0000000000E+00     0.0000000000E+00
     0.0000000000E+00     0.0000000000E+00     0.0000000000E+00     0.0000000000E+00
     0.0000000000E+00     0.0000000000E+00     0.0000000000E+00     0.0000000000E+00
     0.0000000000E+00     0.0000000000E+00     0.0000000000E+00     0.0000000000E+00
     0.0000000000E+00     0.0000000000E+00     0.0000000000E+00     0.0000000000E+00
     0.0000000000E+00     0.0000000000E+00     0.0000000000E+00     0.0000000000E+00
     0.0000000000E+00     0.0000000000E+00     0.0000000000E+00     0.0000000000E+00
     0.0000000000E+00     0.0000000000E+00     0.0000000000E+00     0.0000000000E+00
     0.0000000000E+00     0.0000000000E+00     0.0000000000E+00     0.0000000000E+00
     0.0000000000E+00     0.0000000000E+00     0.0000000000E+00     0.0000000000E+00
     0.0000000000E+00     0.0000000000E+00     0.0000000000E+00     0.0000000000E+00
     0.0000000000E+00     0.0000000000E+00     0.0000000000E+00     0.0000000000E+00
     0.0000000000E+00     0.0000000000E+00     0.0000000000E+00     0.0000000000E+00
     0.0000000000E+00     0.0000000000E+00     0.0000000000E+00     0.0000000000E+00
     0.0000000000E+00     0.0000000000E+00     0.0000000000E+00     0.0000000000E+00
     0.0000000000E+00     0.0000000000E+00     0.0000000000E+00     0.0000000000E+00
     0.0000000000E+00     0.0000000000E+00     0.0000000000E+00     0.0000000000E+00
     0.0000000000E+00     0.0000000000E+00     0.0000000000E+00     0.0000000000E+00
     0.0000000000E+00     0.0000000000E+00     0.0000000000E+00     0.0000000000E+00
     0.0000000000E+00     0.0000000000E+00     0.0000000000E+00     0.0000000000E+00
     0.0000000000E+00     0.0000000000E+00     0.0000000000E+00     0.0000000000E+00
     0.0000000000E+00     0.0000000000E+00     0.0000000000E+00     0.0000000000E+00
     0.0000000000E+00     0.0000000000E+00     0.0000000000E+00     0.0000000000E+00
     0.0000000000E+00     0.0000000000E+00     0.0000000000E+00     0.0000000000E+00
     0.0000000000E+00     0.0000000000E+00     0.0000000000E+00     0.0000000000E+00
     0.0000000000E+00     0.0000000000E+00     0.0000000000E+00     0.0000000000E+00
     0.0000000000E+00     0.0000000000E+00     0.0000000000E+00     0.0000000000E+00
     0.0000000000E+00     0.0000000000E+00     0.0000000000E+00     0.0000000000E+00
     0.0000000000E+00     0.0000000000E+00     0.0000000000E+00     0.0000000000E+00
     0.0000000000E+00     0.0000000000E+00     0.0000000000E+00     0.0000000000E+00
     0.0000000000E+00     0.0000000000E+00     0.0000000000E+00     0.0000000000E+00
     0.0000000000E+00     0.0000000000E+00     0.0000000000E+00     0.0000000000E+00
     0.0000000000E+00     0.0000000000E+00     0.0000000000E+00     0.0000000000E+00
     0.0000000000E+00     0.0000000000E+00     0.0000000000E+00     0.0000000000E+00
     0.0000000000E+00     0.0000000000E+00     0.0000000000E+00     0.0000000000E+00
     0.0000000000E+00     0.0000000000E+00     0.0000000000E+00     0.0000000000E+00
     0.0000000000E+00     0.0000000000E+00     0.0000000000E+00     0.0000000000E+00
     0.0000000000E+00     0.0000000000E+00     0.0000000000E+00     0.0000000000E+00
     0.0000000000E+00     0.0000000000E+00     0.0000000000E+00     0.0000000000E+00
     0.0000000000E+00     0.0000000000E+00     0.0000000000E+00     0.0000000000E+00
     0.0000000000E+00     0.0000000000E+00     0.0000000000E+00     0.0000000000E+00
     0.0000000000E+00     0.0000000000E+00     0.0000000000E+00     0.0000000000E+00
     0.0000000000E+00     0.0000000000E+00     0.0000000000E+00     0.0000000000E+00
     0.0000000000E+00     0.0000000000E+00     0.0000000000E+00     0.0000000000E+00
     0.0000000000E+00     0.0000000000E+00     0.0000000000E+00     0.0000000000E+00
     0.0000000000E+00     0.0000000000E+00     0.0000000000E+00     0.0000000000E+00
     0.0000000000E+00     0.0000000000E+00     0.0000000000E+00     0.0000000000E+00
     0.0000000000E+00     0.0000000000E+00     0.0000000000E+00     0.0000000000E+00
     0.0000000000E+00     0.0000000000E+00     0.0000000000E+00     0.0000000000E+00
     0.0000000000E+00     0.0000000000E+00     0.0000000000E+00     0.0000000000E+00
     0.0000000000E+00     0.0000000000E+00     0.0000000000E+00     0.0000000000E+00
     0.0000000000E+00     0.0000000000E+00     0.0000000000E+00     0.0000000000E+00
     0.0000000000E+00     0.0000000000E+00     0.0000000000E+00     0.0000000000E+00
     0.0000000000E+00     0.0000000000E+00     0.0000000000E+00     0.0000000000E+00
     0.0000000000E+00     0.0000000000E+00     0.0000000000E+00     0.0000000000E+00
     0.0000000000E+00     0.0000000000E+00     0.0000000000E+00     0.0000000000E+00
     0.0000000000E+00     0.0000000000E+00     0.0000000000E+00     0.0000000000E+00
     0.0000000000E+00     0.0000000000E+00     0.0000000000E+00     0.0000000000E+00
     0.0000000000E+00     0.0000000000E+00     0.0000000000E+00     0.0000000000E+00
     0.0000000000E+00     0.0000000000E+00     0.0000000000E+00     0.0000000000E+00
     0.0000000000E+00     0.0000000000E+00     0.0000000000E+00     0.0000000000E+00
     0.0000000000E+00     0.0000000000E+00     0.0000000000E+00     0.0000000000E+00
     0.0000000000E+00     0.0000000000E+00     0.0000000000E+00     0.0000000000E+00
     0.0000000000E+00     0.0000000000E+00     0.0000000000E+00     0.0000000000E+00
     0.0000000000E+00     0.0000000000E+00     0.0000000000E+00     0.0000000000E+00
     0.0000000000E+00     0.0000000000E+00     0.0000000000E+00     0.0000000000E+00
     0.0000000000E+00     0.0000000000E+00     0.0000000000E+00     0.0000000000E+00
     0.0000000000E+00     0.0000000000E+00     0.0000000000E+00     0.0000000000E+00
     0.0000000000E+00     0.0000000000E+00     0.0000000000E+00     0.0000000000E+00
     0.0000000000E+00     0.0000000000E+00     0.0000000000E+00     0.0000000000E+00
     0.0000000000E+00     0.0000000000E+00     0.0000000000E+00     0.0000000000E+00
     0.0000000000E+00     0.0000000000E+00     0.0000000000E+00     0.0000000000E+00
     0.0000000000E+00     0.0000000000E+00     0.0000000000E+00     0.0000000000E+00
     0.0000000000E+00     0.0000000000E+00     0.0000000000E+00     0.0000000000E+00
     0.0000000000E+00     0.0000000000E+00     0.0000000000E+00     0.0000000000E+00
     0.0000000000E+00     0.0000000000E+00     0.0000000000E+00     0.0000000000E+00
     0.0000000000E+00     0.0000000000E+00     0.0000000000E+00     0.0000000000E+00
     0.0000000000E+00     0.0000000000E+00     0.0000000000E+00     0.0000000000E+00
     0.0000000000E+00     0.0000000000E+00     0.0000000000E+00     0.0000000000E+00
     0.0000000000E+00     0.0000000000E+00     0.0000000000E+00     0.0000000000E+00
     0.0000000000E+00     0.0000000000E+00     0.0000000000E+00     0.0000000000E+00
     0.0000000000E+00     0.0000000000E+00     0.0000000000E+00     0.0000000000E+00
     0.0000000000E+00     0.0000000000E+00     0.0000000000E+00     0.0000000000E+00
     0.0000000000E+00     0.0000000000E+00     0.0000000000E+00     0.0000000000E+00
     0.0000000000E+00     0.0000000000E+00     0.0000000000E+00     0.0000000000E+00
     0.0000000000E+00     0.0000000000E+00     0.0000000000E+00     0.0000000000E+00
     0.0000000000E+00     0.0000000000E+00     0.0000000000E+00     0.0000000000E+00
     0.0000000000E+00     0.0000000000E+00     0.0000000000E+00     0.0000000000E+00
     0.0000000000E+00     0.0000000000E+00     0.0000000000E+00     0.0000000000E+00
     0.0000000000E+00     0.0000000000E+00     0.0000000000E+00     0.0000000000E+00
     0.0000000000E+00     0.0000000000E+00     0.0000000000E+00     0.0000000000E+00
     0.0000000000E+00     0.0000000000E+00     0.0000000000E+00     0.0000000000E+00
     0.0000000000E+00     0.0000000000E+00     0.0000000000E+00     0.0000000000E+00
     0.0000000000E+00     0.0000000000E+00     0.0000000000E+00     0.0000000000E+00
     0.0000000000E+00     0.0000000000E+00     0.0000000000E+00     0.0000000000E+00
     0.0000000000E+00     0.0000000000E+00     0.0000000000E+00     0.0000000000E+00
     0.0000000000E+00     0.0000000000E+00     0.0000000000E+00     0.0000000000E+00
     0.0000000000E+00     0.0000000000E+00     0.0000000000E+00     0.0000000000E+00
     0.0000000000E+00     0.0000000000E+00     0.0000000000E+00     0.0000000000E+00
     0.0000000000E+00     0.0000000000E+00     0.0000000000E+00     0.0000000000E+00
     0.0000000000E+00     0.0000000000E+00     0.0000000000E+00     0.0000000000E+00
     0.0000000000E+00     0.0000000000E+00     0.0000000000E+00     0.0000000000E+00
     0.0000000000E+00     0.0000000000E+00     0.0000000000E+00     0.0000000000E+00
     0.0000000000E+00     0.0000000000E+00     0.0000000000E+00     0.0000000000E+00
     0.0000000000E+00     0.0000000000E+00     0.0000000000E+00     0.0000000000E+00
     0.0000000000E+00     0.0000000000E+00     0.0000000000E+00     0.0000000000E+00
     0.0000000000E+00     0.0000000000E+00     0.0000000000E+00     0.0000000000E+00
     0.0000000000E+00     0.0000000000E+00     0.0000000000E+00     0.0000000000E+00
     0.0000000000E+00     0.0000000000E+00     0.0000000000E+00     0.0000000000E+00
     0.0000000000E+00     0.0000000000E+00     0.0000000000E+00     0.0000000000E+00
     0.0000000000E+00     0.0000000000E+00     0.0000000000E+00     0.0000000000E+00
     0.0000000000E+00     0.0000000000E+00     0.0000000000E+00     0.0000000000E+00
     0.0000000000E+00     0.0000000000E+00     0.0000000000E+00     0.0000000000E+00
     0.0000000000E+00     0.0000000000E+00     0.0000000000E+00     0.0000000000E+00
     0.0000000000E+00     0.0000000000E+00     0.0000000000E+00     0.0000000000E+00
     0.0000000000E+00     0.0000000000E+00     0.0000000000E+00     0.0000000000E+00
     0.0000000000E+00     0.0000000000E+00     0.0000000000E+00     0.0000000000E+00
     0.0000000000E+00     0.0000000000E+00     0.0000000000E+00     0.0000000000E+00
     0.0000000000E+00     0.0000000000E+00     0.0000000000E+00     0.0000000000E+00
     0.0000000000E+00     0.0000000000E+00     0.0000000000E+00     0.0000000000E+00
     0.0000000000E+00     0.0000000000E+00     0.0000000000E+00     0.0000000000E+00
     0.0000000000E+00     0.0000000000E+00     0.0000000000E+00     0.0000000000E+00
     0.0000000000E+00     0.0000000000E+00     0.0000000000E+00     0.0000000000E+00
     0.0000000000E+00     0.0000000000E+00     0.0000000000E+00     0.0000000000E+00
     0.0000000000E+00     0.0000000000E+00     0.0000000000E+00     0.0000000000E+00
     0.0000000000E+00     0.0000000000E+00     0.0000000000E+00     0.0000000000E+00
     0.0000000000E+00     0.0000000000E+00     0.0000000000E+00     0.0000000000E+00
     0.0000000000E+00     0.0000000000E+00     0.0000000000E+00     0.0000000000E+00
     0.0000000000E+00     0.0000000000E+00     0.0000000000E+00     0.0000000000E+00
     0.0000000000E+00     0.0000000000E+00     0.0000000000E+00     0.0000000000E+00
     0.0000000000E+00     0.0000000000E+00     0.0000000000E+00     0.0000000000E+00
     0.0000000000E+00     0.0000000000E+00     0.0000000000E+00     0.0000000000E+00
     0.0000000000E+00     0.0000000000E+00     0.0000000000E+00     0.0000000000E+00
     0.0000000000E+00     0.0000000000E+00     0.0000000000E+00     0.0000000000E+00
     0.0000000000E+00     0.0000000000E+00     0.0000000000E+00     0.0000000000E+00
     0.0000000000E+00     0.0000000000E+00     0.0000000000E+00     0.0000000000E+00
     0.0000000000E+00     0.0000000000E+00     0.0000000000E+00     0.0000000000E+00
     0.0000000000E+00     0.0000000000E+00     0.0000000000E+00     0.0000000000E+00
     0.0000000000E+00     0.0000000000E+00     0.0000000000E+00     0.0000000000E+00
     0.0000000000E+00     0.0000000000E+00     0.0000000000E+00     0.0000000000E+00
     0.0000000000E+00     0.0000000000E+00     0.0000000000E+00     0.0000000000E+00
     0.0000000000E+00     0.0000000000E+00     0.0000000000E+00     0.0000000000E+00
     0.0000000000E+00     0.0000000000E+00     0.0000000000E+00     0.0000000000E+00
     0.0000000000E+00     0.0000000000E+00     0.0000000000E+00     0.0000000000E+00
     0.0000000000E+00     0.0000000000E+00     0.0000000000E+00     0.0000000000E+00
     0.0000000000E+00     0.0000000000E+00     0.0000000000E+00     0.0000000000E+00
     0.0000000000E+00     0.0000000000E+00     0.0000000000E+00     0.0000000000E+00
     0.0000000000E+00     0.0000000000E+00     0.0000000000E+00     0.0000000000E+00
     0.0000000000E+00     0.0000000000E+00     0.0000000000E+00     0.0000000000E+00
     0.0000000000E+00     0.0000000000E+00     0.0000000000E+00     0.0000000000E+00
     0.0000000000E+00     0.0000000000E+00     0.0000000000E+00     0.0000000000E+00
     0.0000000000E+00     0.0000000000E+00     0.0000000000E+00     0.0000000000E+00
     0.0000000000E+00     0.0000000000E+00     0.0000000000E+00     0.0000000000E+00
     0.0000000000E+00     0.0000000000E+00     0.0000000000E+00     0.0000000000E+00
     0.0000000000E+00     0.0000000000E+00     0.0000000000E+00     0.0000000000E+00
     0.0000000000E+00     0.0000000000E+00     0.0000000000E+00     0.0000000000E+00
     0.0000000000E+00     0.0000000000E+00     0.0000000000E+00     0.0000000000E+00
     0.0000000000E+00     0.0000000000E+00     0.0000000000E+00     0.0000000000E+00
     0.0000000000E+00     0.0000000000E+00     0.0000000000E+00     0.0000000000E+00
     0.0000000000E+00     0.0000000000E+00     0.0000000000E+00     0.0000000000E+00
     0.0000000000E+00     0.0000000000E+00     0.0000000000E+00     0.0000000000E+00
     0.0000000000E+00     0.0000000000E+00     0.0000000000E+00     0.0000000000E+00
     0.0000000000E+00     0.0000000000E+00     0.0000000000E+00     0.0000000000E+00
     0.0000000000E+00     0.0000000000E+00     0.0000000000E+00     0.0000000000E+00
     0.0000000000E+00     0.0000000000E+00     0.0000000000E+00     0.0000000000E+00
     0.0000000000E+00     0.0000000000E+00     0.0000000000E+00     0.0000000000E+00
     0.0000000000E+00     0.0000000000E+00     0.0000000000E+00     0.0000000000E+00
     0.0000000000E+00     0.0000000000E+00     0.0000000000E+00     0.0000000000E+00
     0.0000000000E+00     0.0000000000E+00     0.0000000000E+00     0.0000000000E+00
     0.0000000000E+00     0.0000000000E+00     0.0000000000E+00     0.0000000000E+00
     0.0000000000E+00     0.0000000000E+00     0.0000000000E+00     0.0000000000E+00
     0.0000000000E+00     0.0000000000E+00     0.0000000000E+00     0.0000000000E+00
     0.0000000000E+00     0.0000000000E+00     0.0000000000E+00     0.0000000000E+00
     0.0000000000E+00     0.0000000000E+00     0.0000000000E+00     0.0000000000E+00
     0.0000000000E+00     0.0000000000E+00     0.0000000000E+00     0.0000000000E+00
     0.0000000000E+00     0.0000000000E+00     0.0000000000E+00     0.0000000000E+00
     0.0000000000E+00     0.0000000000E+00     0.0000000000E+00     0.0000000000E+00
     0.0000000000E+00     0.0000000000E+00     0.0000000000E+00     0.0000000000E+00
     0.0000000000E+00     0.0000000000E+00     0.0000000000E+00     0.0000000000E+00
     0.0000000000E+00     0.0000000000E+00     0.0000000000E+00     0.0000000000E+00
     0.0000000000E+00     0.0000000000E+00     0.0000000000E+00     0.0000000000E+00
     0.0000000000E+00     0.0000000000E+00     0.0000000000E+00     0.0000000000E+00
     0.0000000000E+00     0.0000000000E+00     0.0000000000E+00     0.0000000000E+00
     0.0000000000E+00     0.0000000000E+00     0.0000000000E+00     0.0000000000E+00
     0.0000000000E+00     0.0000000000E+00     0.0000000000E+00     0.0000000000E+00
     0.0000000000E+00     0.0000000000E+00     0.0000000000E+00     0.0000000000E+00
     0.0000000000E+00     0.0000000000E+00     0.0000000000E+00     0.0000000000E+00
     0.0000000000E+00     0.0000000000E+00     0.0000000000E+00     0.0000000000E+00
     0.0000000000E+00     0.0000000000E+00     0.0000000000E+00     0.0000000000E+00
     0.0000000000E+00     0.0000000000E+00     0.0000000000E+00     0.0000000000E+00
     0.0000000000E+00     0.0000000000E+00     0.0000000000E+00     0.0000000000E+00
     0.0000000000E+00     0.0000000000E+00     0.0000000000E+00     0.0000000000E+00
     0.0000000000E+00     0.0000000000E+00     0.0000000000E+00     0.0000000000E+00
     0.0000000000E+00     0.0000000000E+00     0.0000000000E+00     0.0000000000E+00
     0.0000000000E+00     0.0000000000E+00     0.0000000000E+00     0.0000000000E+00
     0.0000000000E+00     0.0000000000E+00     0.0000000000E+00     0.0000000000E+00
     0.0000000000E+00     0.0000000000E+00     0.0000000000E+00     0.0000000000E+00
     0.0000000000E+00     0.0000000000E+00     0.0000000000E+00     0.0000000000E+00
     0.0000000000E+00     0.0000000000E+00     0.0000000000E+00     0.0000000000E+00
     0.0000000000E+00     0.0000000000E+00     0.0000000000E+00     0.0000000000E+00
     0.0000000000E+00     0.0000000000E+00     0.0000000000E+00     0.0000000000E+00
     0.0000000000E+00     0.0000000000E+00     0.0000000000E+00     0.0000000000E+00
     0.0000000000E+00     0.0000000000E+00     0.0000000000E+00     0.0000000000E+00
     0.0000000000E+00     0.0000000000E+00     0.0000000000E+00     0.0000000000E+00
     0.0000000000E+00     0.0000000000E+00     0.0000000000E+00     0.0000000000E+00
     0.0000000000E+00     0.0000000000E+00     0.0000000000E+00     0.0000000000E+00
     0.0000000000E+00     0.0000000000E+00     0.0000000000E+00     0.0000000000E+00
     0.0000000000E+00     0.0000000000E+00     0.0000000000E+00     0.0000000000E+00
     0.0000000000E+00     0.0000000000E+00     0.0000000000E+00     0.0000000000E+00
     0.0000000000E+00     0.0000000000E+00     0.0000000000E+00     0.0000000000E+00
     0.0000000000E+00     0.0000000000E+00     0.0000000000E+00     0.0000000000E+00
     0.0000000000E+00     0.0000000000E+00     0.0000000000E+00     0.0000000000E+00
     0.0000000000E+00     0.0000000000E+00     0.0000000000E+00     0.0000000000E+00
     0.0000000000E+00     0.0000000000E+00     0.0000000000E+00     0.0000000000E+00
     0.0000000000E+00     0.0000000000E+00     0.0000000000E+00     0.0000000000E+00
     0.0000000000E+00     0.0000000000E+00     0.0000000000E+00     0.0000000000E+00
     0.0000000000E+00     0.0000000000E+00     0.0000000000E+00     0.0000000000E+00
     0.0000000000E+00     0.0000000000E+00     0.0000000000E+00     0.0000000000E+00
     0.0000000000E+00     0.0000000000E+00     0.0000000000E+00     0.0000000000E+00
     0.0000000000E+00     0.0000000000E+00     0.0000000000E+00     0.0000000000E+00
     0.0000000000E+00     0.0000000000E+00     0.0000000000E+00     0.0000000000E+00
     0.0000000000E+00     0.0000000000E+00     0.0000000000E+00     0.0000000000E+00
     0.0000000000E+00     0.0000000000E+00     0.0000000000E+00     0.0000000000E+00
     0.0000000000E+00     0.0000000000E+00     0.0000000000E+00     0.0000000000E+00
     0.0000000000E+00     0.0000000000E+00     0.0000000000E+00     0.0000000000E+00
     0.0000000000E+00     0.0000000000E+00     0.0000000000E+00     0.0000000000E+00
     0.0000000000E+00     0.0000000000E+00     0.0000000000E+00     0.0000000000E+00
     0.0000000000E+00     0.0000000000E+00     0.0000000000E+00     0.0000000000E+00
     0.0000000000E+00     0.0000000000E+00     0.0000000000E+00     0.0000000000E+00
     0.0000000000E+00     0.0000000000E+00     0.0000000000E+00     0.0000000000E+00
     0.0000000000E+00     0.0000000000E+00     0.0000000000E+00     0.0000000000E+00
     0.0000000000E+00     0.0000000000E+00     0.0000000000E+00     0.0000000000E+00
     0.0000000000E+00     0.0000000000E+00     0.0000000000E+00     0.0000000000E+00
     0.0000000000E+00     0.0000000000E+00     0.0000000000E+00     0.0000000000E+00
     0.0000000000E+00     0.0000000000E+00     0.0000000000E+00     0.0000000000E+00
     0.0000000000E+00     0.0000000000E+00     0.0000000000E+00     0.0000000000E+00
     0.0000000000E+00     0.0000000000E+00     0.0000000000E+00     0.0000000000E+00
     0.0000000000E+00     0.0000000000E+00     0.0000000000E+00     0.0000000000E+00
     0.0000000000E+00     0.0000000000E+00     0.0000000000E+00     0.0000000000E+00
     0.0000000000E+00     0.0000000000E+00     0.0000000000E+00     0.0000000000E+00
     0.0000000000E+00     0.0000000000E+00     0.0000000000E+00     0.0000000000E+00
     0.0000000000E+00     0.0000000000E+00     0.0000000000E+00     0.0000000000E+00
     0.0000000000E+00     0.0000000000E+00     0.0000000000E+00     0.0000000000E+00
     0.0000000000E+00     0.0000000000E+00     0.0000000000E+00     0.0000000000E+00
     0.0000000000E+00     0.0000000000E+00     0.0000000000E+00     0.0000000000E+00
     0.0000000000E+00     0.0000000000E+00     0.0000000000E+00     0.0000000000E+00
     0.0000000000E+00     0.0000000000E+00     0.0000000000E+00     0.0000000000E+00
     0.0000000000E+00     0.0000000000E+00     0.0000000000E+00     0.0000000000E+00
     0.0000000000E+00     0.0000000000E+00     0.0000000000E+00     0.0000000000E+00
     0.0000000000E+00     0.0000000000E+00     0.0000000000E+00     0.0000000000E+00
     0.0000000000E+00     0.0000000000E+00     0.0000000000E+00     0.0000000000E+00
     0.0000000000E+00     0.0000000000E+00     0.0000000000E+00     0.0000000000E+00
     0.0000000000E+00     0.0000000000E+00     0.0000000000E+00     0.0000000000E+00
     0.0000000000E+00     0.0000000000E+00     0.0000000000E+00     0.0000000000E+00
     0.0000000000E+00     0.0000000000E+00     0.0000000000E+00     0.0000000000E+00
     0.0000000000E+00     0.0000000000E+00     0.0000000000E+00     0.0000000000E+00
     0.0000000000E+00     0.0000000000E+00     0.0000000000E+00     0.0000000000E+00
     0.0000000000E+00     0.0000000000E+00     0.0000000000E+00     0.0000000000E+00
     0.0000000000E+00     0.0000000000E+00     0.0000000000E+00     0.0000000000E+00
     0.0000000000E+00     0.0000000000E+00     0.0000000000E+00     0.0000000000E+00
     0.0000000000E+00     0.0000000000E+00     0.0000000000E+00     0.0000000000E+00
     0.0000000000E+00     0.0000000000E+00     0.0000000000E+00     0.0000000000E+00
     0.0000000000E+00     0.0000000000E+00     0.0000000000E+00     0.0000000000E+00
     0.0000000000E+00     0.0000000000E+00     0.0000000000E+00     0.0000000000E+00
     0.0000000000E+00     0.0000000000E+00     0.0000000000E+00     0.0000000000E+00
     0.0000000000E+00     0.0000000000E+00     0.0000000000E+00     0.0000000000E+00
     0.0000000000E+00     0.0000000000E+00     0.0000000000E+00     0.0000000000E+00
     0.0000000000E+00     0.0000000000E+00     0.0000000000E+00     0.0000000000E+00
     0.0000000000E+00     0.0000000000E+00     0.0000000000E+00     0.0000000000E+00
     0.0000000000E+00     0.0000000000E+00     0.0000000000E+00     0.0000000000E+00
     0.0000000000E+00     0.0000000000E+00     0.0000000000E+00     0.0000000000E+00
     0.0000000000E+00     0.0000000000E+00     0.0000000000E+00     0.0000000000E+00
     0.0000000000E+00     0.0000000000E+00     0.0000000000E+00     0.0000000000E+00
     0.0000000000E+00     0.0000000000E+00     0.0000000000E+00     0.0000000000E+00
     0.0000000000E+00     0.0000000000E+00     0.0000000000E+00     0.0000000000E+00
     0.0000000000E+00     0.0000000000E+00     0.0000000000E+00     0.0000000000E+00
     0.0000000000E+00     0.0000000000E+00     0.0000000000E+00     0.0000000000E+00
     0.0000000000E+00     0.0000000000E+00     0.0000000000E+00     0.0000000000E+00
     0.0000000000E+00     0.0000000000E+00     0.0000000000E+00     0.0000000000E+00
     0.0000000000E+00     0.0000000000E+00     0.0000000000E+00     0.0000000000E+00
     0.0000000000E+00     0.0000000000E+00     0.0000000000E+00     0.0000000000E+00
     0.0000000000E+00     0.0000000000E+00     0.0000000000E+00     0.0000000000E+00
     0.0000000000E+00     0.0000000000E+00     0.0000000000E+00     0.0000000000E+00
     0.0000000000E+00     0.0000000000E+00     0.0000000000E+00     0.0000000000E+00
     0.0000000000E+00     0.0000000000E+00     0.0000000000E+00     0.0000000000E+00
     0.0000000000E+00     0.0000000000E+00     0.0000000000E+00     0.0000000000E+00
     0.0000000000E+00     0.0000000000E+00     0.0000000000E+00     0.0000000000E+00
     0.0000000000E+00     0.0000000000E+00     0.0000000000E+00     0.0000000000E+00
     0.0000000000E+00     0.0000000000E+00     0.0000000000E+00     0.0000000000E+00
     0.0000000000E+00     0.0000000000E+00     0.0000000000E+00     0.0000000000E+00
     0.0000000000E+00     0.0000000000E+00     0.0000000000E+00     0.0000000000E+00
     0.0000000000E+00     0.0000000000E+00     0.0000000000E+00     0.0000000000E+00
     0.0000000000E+00     0.0000000000E+00     0.0000000000E+00     0.0000000000E+00
     0.0000000000E+00     0.0000000000E+00     0.0000000000E+00     0.0000000000E+00
     0.0000000000E+00     0.0000000000E+00     0.0000000000E+00     0.0000000000E+00
     0.0000000000E+00     0.0000000000E+00     0.0000000000E+00     0.0000000000E+00
     0.0000000000E+00     0.0000000000E+00     0.0000000000E+00     0.0000000000E+00
     0.0000000000E+00     0.0000000000E+00     0.0000000000E+00     0.0000000000E+00
     0.0000000000E+00     0.0000000000E+00     0.0000000000E+00     0.0000000000E+00
     0.0000000000E+00     0.0000000000E+00     0.0000000000E+00     0.0000000000E+00
     0.0000000000E+00     0.0000000000E+00     0.0000000000E+00     0.0000000000E+00
     0.0000000000E+00     0.0000000000E+00     0.0000000000E+00     0.0000000000E+00
     0.0000000000E+00     0.0000000000E+00     0.0000000000E+00     0.0000000000E+00
     0.0000000000E+00     0.0000000000E+00     0.0000000000E+00     0.0000000000E+00
     0.0000000000E+00     0.0000000000E+00     0.0000000000E+00     0.0000000000E+00
     0.0000000000E+00     0.0000000000E+00     0.0000000000E+00     0.0000000000E+00
     0.0000000000E+00     0.0000000000E+00     0.0000000000E+00     0.0000000000E+00
     0.0000000000E+00     0.0000000000E+00     0.0000000000E+00     0.0000000000E+00
     0.0000000000E+00     0.0000000000E+00     0.0000000000E+00     0.0000000000E+00
     0.0000000000E+00     0.0000000000E+00     0.0000000000E+00     0.0000000000E+00
     0.0000000000E+00     0.0000000000E+00     0.0000000000E+00     0.0000000000E+00
     0.0000000000E+00     0.0000000000E+00     0.0000000000E+00     0.0000000000E+00
     0.0000000000E+00     0.0000000000E+00     0.0000000000E+00     0.0000000000E+00
     0.0000000000E+00     0.0000000000E+00     0.0000000000E+00     0.0000000000E+00
     0.0000000000E+00     0.0000000000E+00     0.0000000000E+00     0.0000000000E+00
     0.0000000000E+00     0.0000000000E+00     0.0000000000E+00     0.0000000000E+00
     0.0000000000E+00     0.0000000000E+00     0.0000000000E+00     0.0000000000E+00
     0.0000000000E+00     0.0000000000E+00     0.0000000000E+00     0.0000000000E+00
     0.0000000000E+00     0.0000000000E+00     0.0000000000E+00     0.0000000000E+00
     0.0000000000E+00     0.0000000000E+00     0.0000000000E+00     0.0000000000E+00
     0.0000000000E+00     0.0000000000E+00     0.0000000000E+00     0.0000000000E+00
     0.0000000000E+00     0.0000000000E+00     0.0000000000E+00     0.0000000000E+00
     0.0000000000E+00     0.0000000000E+00     0.0000000000E+00     0.0000000000E+00
     0.0000000000E+00     0.0000000000E+00     0.0000000000E+00     0.0000000000E+00
     0.0000000000E+00     0.0000000000E+00     0.0000000000E+00     0.0000000000E+00
     0.0000000000E+00     0.0000000000E+00     0.0000000000E+00     0.0000000000E+00
     0.0000000000E+00     0.0000000000E+00     0.0000000000E+00     0.0000000000E+00
     0.0000000000E+00     0.0000000000E+00     0.0000000000E+00     0.0000000000E+00
     0.0000000000E+00     0.0000000000E+00     0.0000000000E+00     0.0000000000E+00
     0.0000000000E+00     0.0000000000E+00     0.0000000000E+00     0.0000000000E+00
     0.0000000000E+00     0.0000000000E+00     0.0000000000E+00     0.0000000000E+00
     0.0000000000E+00     0.0000000000E+00     0.0000000000E+00     0.0000000000E+00
     0.0000000000E+00     0.0000000000E+00     0.0000000000E+00     0.0000000000E+00
     0.0000000000E+00     0.0000000000E+00     0.0000000000E+00     0.0000000000E+00
     0.0000000000E+00     0.0000000000E+00     0.0000000000E+00     0.0000000000E+00
     0.0000000000E+00     0.0000000000E+00     0.0000000000E+00     0.0000000000E+00
     0.0000000000E+00     0.0000000000E+00     0.0000000000E+00     0.0000000000E+00
     0.0000000000E+00     0.0000000000E+00     0.0000000000E+00     0.0000000000E+00
     0.0000000000E+00     0.0000000000E+00     0.0000000000E+00     0.0000000000E+00
     0.0000000000E+00     0.0000000000E+00     0.0000000000E+00     0.0000000000E+00
     0.0000000000E+00     0.0000000000E+00     0.0000000000E+00     0.0000000000E+00
     0.0000000000E+00     0.0000000000E+00     0.0000000000E+00     0.0000000000E+00
     0.0000000000E+00     0.0000000000E+00     0.0000000000E+00     0.0000000000E+00
     0.0000000000E+00     0.0000000000E+00     0.0000000000E+00     0.0000000000E+00
     0.0000000000E+00     0.0000000000E+00     0.0000000000E+00     0.0000000000E+00
     0.0000000000E+00     0.0000000000E+00     0.0000000000E+00     0.0000000000E+00
     0.0000000000E+00     0.0000000000E+00     0.0000000000E+00     0.0000000000E+00
     0.0000000000E+00     0.0000000000E+00     0.0000000000E+00     0.0000000000E+00
     0.0000000000E+00     0.0000000000E+00     0.0000000000E+00     0.0000000000E+00
     0.0000000000E+00     0.0000000000E+00     0.0000000000E+00     0.0000000000E+00
     0.0000000000E+00     0.0000000000E+00     0.0000000000E+00     0.0000000000E+00
     0.0000000000E+00     0.0000000000E+00     0.0000000000E+00     0.0000000000E+00
     0.0000000000E+00     0.0000000000E+00     0.0000000000E+00     0.0000000000E+00
     0.0000000000E+00     0.0000000000E+00     0.0000000000E+00     0.0000000000E+00
     0.0000000000E+00     0.0000000000E+00     0.0000000000E+00     0.0000000000E+00
     0.0000000000E+00     0.0000000000E+00     0.0000000000E+00     0.0000000000E+00
     0.0000000000E+00     0.0000000000E+00     0.0000000000E+00     0.0000000000E+00
     0.0000000000E+00     0.0000000000E+00     0.0000000000E+00     0.0000000000E+00
     0.0000000000E+00     0.0000000000E+00     0.0000000000E+00     0.0000000000E+00
     0.0000000000E+00     0.0000000000E+00     0.0000000000E+00     0.0000000000E+00
     0.0000000000E+00     0.0000000000E+00     0.0000000000E+00     0.0000000000E+00
     0.0000000000E+00     0.0000000000E+00     0.0000000000E+00     0.0000000000E+00
     0.0000000000E+00     0.0000000000E+00     0.0000000000E+00     0.0000000000E+00
     0.0000000000E+00     0.0000000000E+00     0.0000000000E+00     0.0000000000E+00
     0.0000000000E+00     0.0000000000E+00     0.0000000000E+00     0.0000000000E+00
     0.0000000000E+00     0.0000000000E+00     0.0000000000E+00     0.0000000000E+00
     0.0000000000E+00     0.0000000000E+00     0.0000000000E+00     0.0000000000E+00
     0.0000000000E+00     0.0000000000E+00     0.0000000000E+00     0.0000000000E+00
     0.0000000000E+00     0.0000000000E+00     0.0000000000E+00     0.0000000000E+00
     0.0000000000E+00     0.0000000000E+00     0.0000000000E+00     0.0000000000E+00
     0.0000000000E+00     0.0000000000E+00     0.0000000000E+00     0.0000000000E+00
     0.0000000000E+00     0.0000000000E+00     0.0000000000E+00     0.0000000000E+00
     0.0000000000E+00     0.0000000000E+00     0.0000000000E+00     0.0000000000E+00
     0.0000000000E+00     0.0000000000E+00     0.0000000000E+00     0.0000000000E+00
     0.0000000000E+00     0.0000000000E+00     0.0000000000E+00     0.0000000000E+00
     0.0000000000E+00     0.0000000000E+00     0.0000000000E+00     0.0000000000E+00
     0.0000000000E+00     0.0000000000E+00     0.0000000000E+00     0.0000000000E+00
     0.0000000000E+00     0.0000000000E+00     0.0000000000E+00     0.0000000000E+00
     0.0000000000E+00     0.0000000000E+00     0.0000000000E+00     0.0000000000E+00
     0.0000000000E+00     0.0000000000E+00     0.0000000000E+00     0.0000000000E+00
     0.0000000000E+00     0.0000000000E+00     0.0000000000E+00     0.0000000000E+00
     0.0000000000E+00     0.0000000000E+00     0.0000000000E+00     0.0000000000E+00
     0.0000000000E+00     0.0000000000E+00     0.0000000000E+00     0.0000000000E+00
     0.0000000000E+00     0.0000000000E+00     0.0000000000E+00     0.0000000000E+00
     0.0000000000E+00     0.0000000000E+00     0.0000000000E+00     0.0000000000E+00
     0.0000000000E+00     0.0000000000E+00     0.0000000000E+00     0.0000000000E+00
     0.0000000000E+00     0.0000000000E+00     0.0000000000E+00     0.0000000000E+00
     0.0000000000E+00     0.0000000000E+00     0.0000000000E+00     0.0000000000E+00
     0.0000000000E+00     0.0000000000E+00     0.0000000000E+00     0.0000000000E+00
     0.0000000000E+00     0.0000000000E+00     0.0000000000E+00     0.0000000000E+00
     0.0000000000E+00     0.0000000000E+00     0.0000000000E+00     0.0000000000E+00
     0.0000000000E+00     0.0000000000E+00     0.0000000000E+00     0.0000000000E+00
     0.0000000000E+00     0.0000000000E+00     0.0000000000E+00     0.0000000000E+00
     0.0000000000E+00     0.0000000000E+00     0.0000000000E+00     0.0000000000E+00
     0.0000000000E+00     0.0000000000E+00     0.0000000000E+00     0.0000000000E+00
     0.0000000000E+00     0.0000000000E+00     0.0000000000E+00     0.0000000000E+00
     0.0000000000E+00     0.0000000000E+00     0.0000000000E+00     0.0000000000E+00
     0.0000000000E+00     0.0000000000E+00     0.0000000000E+00     0.0000000000E+00
     0.0000000000E+00     0.0000000000E+00     0.0000000000E+00     0.0000000000E+00
     0.0000000000E+00     0.0000000000E+00     0.0000000000E+00     0.0000000000E+00
     0.0000000000E+00     0.0000000000E+00     0.0000000000E+00     0.0000000000E+00
     0.0000000000E+00     0.0000000000E+00     0.0000000000E+00     0.0000000000E+00
     0.0000000000E+00     0.0000000000E+00     0.0000000000E+00     0.0000000000E+00
     0.0000000000E+00     0.0000000000E+00     0.0000000000E+00     0.0000000000E+00
     0.0000000000E+00     0.0000000000E+00     0.0000000000E+00     0.0000000000E+00
     0.0000000000E+00     0.0000000000E+00     0.0000000000E+00     0.0000000000E+00
     0.0000000000E+00     0.0000000000E+00     0.0000000000E+00     0.0000000000E+00
     0.0000000000E+00     0.0000000000E+00     0.0000000000E+00     0.0000000000E+00
     0.0000000000E+00     0.0000000000E+00     0.0000000000E+00     0.0000000000E+00
     0.0000000000E+00     0.0000000000E+00     0.0000000000E+00     0.0000000000E+00
     0.0000000000E+00     0.0000000000E+00     0.0000000000E+00     0.0000000000E+00
     0.0000000000E+00     0.0000000000E+00     0.0000000000E+00     0.0000000000E+00
     0.0000000000E+00     0.0000000000E+00     0.0000000000E+00     0.0000000000E+00
     0.0000000000E+00     0.0000000000E+00     0.0000000000E+00     0.0000000000E+00
     0.0000000000E+00     0.0000000000E+00     0.0000000000E+00     0.0000000000E+00
     0.0000000000E+00     0.0000000000E+00     0.0000000000E+00     0.0000000000E+00
     0.0000000000E+00     0.0000000000E+00     0.0000000000E+00     0.0000000000E+00
     0.0000000000E+00     0.0000000000E+00     0.0000000000E+00     0.0000000000E+00
     0.0000000000E+00     0.0000000000E+00     0.0000000000E+00     0.0000000000E+00
     0.0000000000E+00     0.0000000000E+00     0.0000000000E+00     0.0000000000E+00
     0.0000000000E+00     0.0000000000E+00     0.0000000000E+00     0.0000000000E+00
     0.0000000000E+00     0.0000000000E+00     0.0000000000E+00     0.0000000000E+00
     0.0000000000E+00     0.0000000000E+00     0.0000000000E+00     0.0000000000E+00
     0.0000000000E+00     0.0000000000E+00     0.0000000000E+00     0.0000000000E+00
     0.0000000000E+00     0.0000000000E+00     0.0000000000E+00     0.0000000000E+00
     0.0000000000E+00     0.0000000000E+00     0.0000000000E+00     0.0000000000E+00
     0.0000000000E+00     0.0000000000E+00     0.0000000000E+00     0.0000000000E+00
     0.0000000000E+00     0.0000000000E+00     0.0000000000E+00     0.0000000000E+00
     0.0000000000E+00     0.0000000000E+00     0.0000000000E+00     0.0000000000E+00
     0.0000000000E+00     0.0000000000E+00     0.0000000000E+00     0.0000000000E+00
     0.0000000000E+00     0.0000000000E+00     0.0000000000E+00     0.0000000000E+00
     0.0000000000E+00     0.0000000000E+00     0.0000000000E+00     0.0000000000E+00
     0.0000000000E+00     0.0000000000E+00     0.0000000000E+00     0.0000000000E+00
     0.0000000000E+00     0.0000000000E+00     0.0000000000E+00     0.0000000000E+00
     0.0000000000E+00     0.0000000000E+00     0.0000000000E+00     0.0000000000E+00
     0.0000000000E+00     0.0000000000E+00     0.0000000000E+00     0.0000000000E+00
     0.0000000000E+00     0.0000000000E+00     0.0000000000E+00     0.0000000000E+00
     0.0000000000E+00     0.0000000000E+00     0.0000000000E+00     0.0000000000E+00
     0.0000000000E+00     0.0000000000E+00     0.0000000000E+00     0.0000000000E+00
     0.0000000000E+00     0.0000000000E+00     0.0000000000E+00     0.0000000000E+00
     0.0000000000E+00     0.0000000000E+00     0.0000000000E+00     0.0000000000E+00
     0.0000000000E+00     0.0000000000E+00     0.0000000000E+00     0.0000000000E+00
     0.0000000000E+00     0.0000000000E+00     0.0000000000E+00     0.0000000000E+00
     0.0000000000E+00     0.0000000000E+00     0.0000000000E+00     0.0000000000E+00
     0.0000000000E+00     0.0000000000E+00     0.0000000000E+00     0.0000000000E+00
     0.0000000000E+00     0.0000000000E+00     0.0000000000E+00     0.0000000000E+00
     0.0000000000E+00     0.0000000000E+00     0.0000000000E+00     0.0000000000E+00
     0.0000000000E+00     0.0000000000E+00     0.0000000000E+00     0.0000000000E+00
     0.0000000000E+00     0.0000000000E+00     0.0000000000E+00     0.0000000000E+00
     0.0000000000E+00     0.0000000000E+00     0.0000000000E+00     0.0000000000E+00
     0.0000000000E+00     0.0000000000E+00     0.0000000000E+00     0.0000000000E+00
     0.0000000000E+00     0.0000000000E+00     0.0000000000E+00     0.0000000000E+00
     0.0000000000E+00     0.0000000000E+00     0.0000000000E+00     0.0000000000E+00
     0.0000000000E+00     0.0000000000E+00     0.0000000000E+00     0.0000000000E+00
     0.0000000000E+00     0.0000000000E+00     0.0000000000E+00     0.0000000000E+00
     0.0000000000E+00     0.0000000000E+00     0.0000000000E+00     0.0000000000E+00
     0.0000000000E+00     0.0000000000E+00     0.0000000000E+00     0.0000000000E+00
     0.0000000000E+00     0.0000000000E+00     0.0000000000E+00     0.0000000000E+00
     0.0000000000E+00     0.0000000000E+00     0.0000000000E+00     0.0000000000E+00
     0.0000000000E+00     0.0000000000E+00     0.0000000000E+00     0.0000000000E+00
     0.0000000000E+00     0.0000000000E+00     0.0000000000E+00     0.0000000000E+00
     0.0000000000E+00     0.0000000000E+00     0.0000000000E+00     0.0000000000E+00
     0.0000000000E+00     0.0000000000E+00     0.0000000000E+00     0.0000000000E+00
     0.0000000000E+00     0.0000000000E+00     0.0000000000E+00     0.0000000000E+00
     0.0000000000E+00     0.0000000000E+00     0.0000000000E+00     0.0000000000E+00
     0.0000000000E+00     0.0000000000E+00     0.0000000000E+00     0.0000000000E+00
     0.0000000000E+00     0.0000000000E+00     0.0000000000E+00     0.0000000000E+00
     0.0000000000E+00     0.0000000000E+00     0.0000000000E+00     0.0000000000E+00
     0.0000000000E+00     0.0000000000E+00     0.0000000000E+00     0.0000000000E+00
     0.0000000000E+00     0.0000000000E+00     0.0000000000E+00     0.0000000000E+00
     0.0000000000E+00     0.0000000000E+00     0.0000000000E+00     0.0000000000E+00
     0.0000000000E+00     0.0000000000E+00     0.0000000000E+00     0.0000000000E+00
     0.0000000000E+00     0.0000000000E+00     0.0000000000E+00     0.0000000000E+00
     0.0000000000E+00     0.0000000000E+00     0.0000000000E+00     0.0000000000E+00
     0.0000000000E+00     0.0000000000E+00     0.0000000000E+00     0.0000000000E+00
     0.0000000000E+00     0.0000000000E+00     0.0000000000E+00     0.0000000000E+00
     0.0000000000E+00     0.0000000000E+00     0.0000000000E+00     0.0000000000E+00
     0.0000000000E+00     0.0000000000E+00     0.0000000000E+00     0.0000000000E+00
     0.0000000000E+00     0.0000000000E+00     0.0000000000E+00     0.0000000000E+00
     0.0000000000E+00     0.0000000000E+00     0.0000000000E+00     0.0000000000E+00
     0.0000000000E+00     0.0000000000E+00     0.0000000000E+00     0.0000000000E+00
     0.0000000000E+00     0.0000000000E+00     0.0000000000E+00     0.0000000000E+00
     0.0000000000E+00     0.0000000000E+00     0.0000000000E+00     0.0000000000E+00
     0.0000000000E+00     0.0000000000E+00     0.0000000000E+00     0.0000000000E+00
     0.0000000000E+00     0.0000000000E+00     0.0000000000E+00     0.0000000000E+00
     0.0000000000E+00     0.0000000000E+00     0.0000000000E+00     0.0000000000E+00
     0.0000000000E+00     0.0000000000E+00     0.0000000000E+00     0.0000000000E+00
     0.0000000000E+00     0.0000000000E+00     0.0000000000E+00     0.0000000000E+00
     0.0000000000E+00     0.0000000000E+00     0.0000000000E+00     0.0000000000E+00
     0.0000000000E+00     0.0000000000E+00     0.0000000000E+00     0.0000000000E+00
     0.0000000000E+00     0.0000000000E+00     0.0000000000E+00     0.0000000000E+00
     0.0000000000E+00     0.0000000000E+00     0.0000000000E+00     0.0000000000E+00
     0.0000000000E+00     0.0000000000E+00     0.0000000000E+00     0.0000000000E+00
     0.0000000000E+00     0.0000000000E+00     0.0000000000E+00     0.0000000000E+00
     0.0000000000E+00     0.0000000000E+00     0.0000000000E+00     0.0000000000E+00
     0.0000000000E+00     0.0000000000E+00     0.0000000000E+00     0.0000000000E+00
     0.0000000000E+00     0.0000000000E+00     0.0000000000E+00     0.0000000000E+00
     0.0000000000E+00     0.0000000000E+00     0.0000000000E+00     0.0000000000E+00
     0.0000000000E+00     0.0000000000E+00     0.0000000000E+00     0.0000000000E+00
     0.0000000000E+00     0.0000000000E+00     0.0000000000E+00     0.0000000000E+00
     0.0000000000E+00     0.0000000000E+00     0.0000000000E+00     0.0000000000E+00
     0.0000000000E+00     0.0000000000E+00     0.0000000000E+00     0.0000000000E+00
     0.0000000000E+00     0.0000000000E+00     0.0000000000E+00     0.0000000000E+00
     0.0000000000E+00     0.0000000000E+00     0.0000000000E+00     0.0000000000E+00
     0.0000000000E+00     0.0000000000E+00     0.0000000000E+00     0.0000000000E+00
     0.0000000000E+00     0.0000000000E+00     0.0000000000E+00     0.0000000000E+00
     0.0000000000E+00     0.0000000000E+00     0.0000000000E+00     0.0000000000E+00
     0.0000000000E+00     0.0000000000E+00     0.0000000000E+00     0.0000000000E+00
     0.0000000000E+00     0.0000000000E+00     0.0000000000E+00     0.0000000000E+00
     0.0000000000E+00     0.0000000000E+00     0.0000000000E+00     0.0000000000E+00
     0.0000000000E+00     0.0000000000E+00     0.0000000000E+00     0.0000000000E+00
     0.0000000000E+00     0.0000000000E+00     0.0000000000E+00     0.0000000000E+00
     0.0000000000E+00     0.0000000000E+00     0.0000000000E+00     0.0000000000E+00
     0.0000000000E+00     0.0000000000E+00     0.0000000000E+00     0.0000000000E+00
     0.0000000000E+00     0.0000000000E+00     0.0000000000E+00     0.0000000000E+00
     0.0000000000E+00     0.0000000000E+00     0.0000000000E+00     0.0000000000E+00
     0.0000000000E+00     0.0000000000E+00     0.0000000000E+00     0.0000000000E+00
     0.0000000000E+00     0.0000000000E+00     0.0000000000E+00     0.0000000000E+00
     0.0000000000E+00     0.0000000000E+00     0.0000000000E+00     0.0000000000E+00
     0.0000000000E+00     0.0000000000E+00     0.0000000000E+00     0.0000000000E+00
     0.0000000000E+00     0.0000000000E+00     0.0000000000E+00     0.0000000000E+00
     0.0000000000E+00     0.0000000000E+00     0.0000000000E+00     0.0000000000E+00
     0.0000000000E+00     0.0000000000E+00     0.0000000000E+00     0.0000000000E+00
     0.0000000000E+00     0.0000000000E+00     0.0000000000E+00     0.0000000000E+00
     0.0000000000E+00     0.0000000000E+00     0.0000000000E+00     0.0000000000E+00
     0.0000000000E+00     0.0000000000E+00     0.0000000000E+00     0.0000000000E+00
     0.0000000000E+00     0.0000000000E+00     0.0000000000E+00     0.0000000000E+00
     0.0000000000E+00     0.0000000000E+00     0.0000000000E+00     0.0000000000E+00
     0.0000000000E+00     0.0000000000E+00     0.0000000000E+00     0.0000000000E+00
     0.0000000000E+00     0.0000000000E+00     0.0000000000E+00     0.0000000000E+00
     0.0000000000E+00     0.0000000000E+00     0.0000000000E+00     0.0000000000E+00
     0.0000000000E+00     0.0000000000E+00     0.0000000000E+00     0.0000000000E+00
     0.0000000000E+00     0.0000000000E+00     0.0000000000E+00     0.0000000000E+00
     0.0000000000E+00     0.0000000000E+00     0.0000000000E+00     0.0000000000E+00
     0.0000000000E+00     0.0000000000E+00     0.0000000000E+00     0.0000000000E+00
     0.0000000000E+00     0.0000000000E+00     0.0000000000E+00     0.0000000000E+00
     0.0000000000E+00     0.0000000000E+00     0.0000000000E+00     0.0000000000E+00
     0.0000000000E+00     0.0000000000E+00     0.0000000000E+00     0.0000000000E+00
     0.0000000000E+00     0.0000000000E+00     0.0000000000E+00     0.0000000000E+00
     0.0000000000E+00     0.0000000000E+00     0.0000000000E+00     0.0000000000E+00
     0.0000000000E+00     0.0000000000E+00     0.0000000000E+00     0.0000000000E+00
     0.0000000000E+00     0.0000000000E+00     0.0000000000E+00     0.0000000000E+00
     0.0000000000E+00     0.0000000000E+00     0.0000000000E+00     0.0000000000E+00
     0.0000000000E+00     0.0000000000E+00     0.0000000000E+00     0.0000000000E+00
     0.0000000000E+00     0.0000000000E+00     0.0000000000E+00     0.0000000000E+00
     0.0000000000E+00     0.0000000000E+00     0.0000000000E+00     0.0000000000E+00
     0.0000000000E+00     0.0000000000E+00     0.0000000000E+00     0.0000000000E+00
     0.0000000000E+00     0.0000000000E+00     0.0000000000E+00     0.0000000000E+00
     0.0000000000E+00     0.0000000000E+00     0.0000000000E+00     0.0000000000E+00
     0.0000000000E+00     0.0000000000E+00     0.0000000000E+00     0.0000000000E+00
     0.0000000000E+00     0.0000000000E+00     0.0000000000E+00     0.0000000000E+00
     0.0000000000E+00     0.0000000000E+00     0.0000000000E+00     0.0000000000E+00
     0.0000000000E+00     0.0000000000E+00     0.0000000000E+00     0.0000000000E+00
     0.0000000000E+00     0.0000000000E+00     0.0000000000E+00     0.0000000000E+00
     0.0000000000E+00     0.0000000000E+00     0.0000000000E+00     0.0000000000E+00
     0.0000000000E+00     0.0000000000E+00     0.0000000000E+00     0.0000000000E+00
     0.0000000000E+00     0.0000000000E+00     0.0000000000E+00     0.0000000000E+00
     0.0000000000E+00     0.0000000000E+00     0.0000000000E+00     0.0000000000E+00
     0.0000000000E+00     0.0000000000E+00     0.0000000000E+00     0.0000000000E+00
     0.0000000000E+00     0.0000000000E+00     0.0000000000E+00     0.0000000000E+00
     0.0000000000E+00     0.0000000000E+00     0.0000000000E+00     0.0000000000E+00
     0.0000000000E+00     0.0000000000E+00     0.0000000000E+00     0.0000000000E+00
     0.0000000000E+00     0.0000000000E+00     0.0000000000E+00     0.0000000000E+00
     0.0000000000E+00     0.0000000000E+00     0.0000000000E+00     0.0000000000E+00
     0.0000000000E+00     0.0000000000E+00     0.0000000000E+00     0.0000000000E+00
     0.0000000000E+00     0.0000000000E+00     0.0000000000E+00     0.0000000000E+00
     0.0000000000E+00     0.0000000000E+00     0.0000000000E+00     0.0000000000E+00
     0.0000000000E+00     0.0000000000E+00     0.0000000000E+00     0.0000000000E+00
     0.0000000000E+00     0.0000000000E+00     0.0000000000E+00     0.0000000000E+00
     0.0000000000E+00     0.0000000000E+00     0.0000000000E+00     0.0000000000E+00
     0.0000000000E+00     0.0000000000E+00     0.0000000000E+00     0.0000000000E+00
     0.0000000000E+00     0.0000000000E+00     0.0000000000E+00     0.0000000000E+00
     0.0000000000E+00     0.0000000000E+00     0.0000000000E+00     0.0000000000E+00
     0.0000000000E+00     0.0000000000E+00     0.0000000000E+00     0.0000000000E+00
     0.0000000000E+00     0.0000000000E+00     0.0000000000E+00     0.0000000000E+00
     0.0000000000E+00     0.0000000000E+00     0.0000000000E+00     0.0000000000E+00
     0.0000000000E+00     0.0000000000E+00     0.0000000000E+00     0.0000000000E+00
     0.0000000000E+00     0.0000000000E+00     0.0000000000E+00     0.0000000000E+00
     0.0000000000E+00     0.0000000000E+00     0.0000000000E+00     0.0000000000E+00
     0.0000000000E+00     0.0000000000E+00     0.0000000000E+00     0.0000000000E+00
     0.0000000000E+00     0.0000000000E+00     0.0000000000E+00     0.0000000000E+00
     0.0000000000E+00     0.0000000000E+00     0.0000000000E+00     0.0000000000E+00
     0.0000000000E+00     0.0000000000E+00     0.0000000000E+00     0.0000000000E+00
     0.0000000000E+00     0.0000000000E+00     0.0000000000E+00     0.0000000000E+00
     0.0000000000E+00     0.0000000000E+00     0.0000000000E+00     0.0000000000E+00
     0.0000000000E+00     0.0000000000E+00     0.0000000000E+00     0.0000000000E+00
     0.0000000000E+00     0.0000000000E+00     0.0000000000E+00     0.0000000000E+00
     0.0000000000E+00     0.0000000000E+00     0.0000000000E+00     0.0000000000E+00
     0.0000000000E+00     0.0000000000E+00     0.0000000000E+00     0.0000000000E+00
     0.0000000000E+00     0.0000000000E+00     0.0000000000E+00     0.0000000000E+00
     0.0000000000E+00     0.0000000000E+00     0.0000000000E+00     0.0000000000E+00
     0.0000000000E+00     0.0000000000E+00     0.0000000000E+00     0.0000000000E+00
     0.0000000000E+00     0.0000000000E+00     0.0000000000E+00     0.0000000000E+00
     0.0000000000E+00     0.0000000000E+00     0.0000000000E+00     0.0000000000E+00
     0.0000000000E+00     0.0000000000E+00     0.0000000000E+00     0.0000000000E+00
     0.0000000000E+00     0.0000000000E+00     0.0000000000E+00     0.0000000000E+00
     0.0000000000E+00     0.0000000000E+00     0.0000000000E+00     0.0000000000E+00
     0.0000000000E+00     0.0000000000E+00     0.0000000000E+00     0.0000000000E+00
     0.0000000000E+00     0.0000000000E+00     0.0000000000E+00     0.0000000000E+00
     0.0000000000E+00     0.0000000000E+00     0.0000000000E+00     0.0000000000E+00
     0.0000000000E+00     0.0000000000E+00     0.0000000000E+00     0.0000000000E+00
     0.0000000000E+00     0.0000000000E+00     0.0000000000E+00     0.0000000000E+00
     0.0000000000E+00     0.0000000000E+00     0.0000000000E+00     0.0000000000E+00
     0.0000000000E+00     0.0000000000E+00     0.0000000000E+00     0.0000000000E+00
     0.0000000000E+00     0.0000000000E+00     0.0000000000E+00     0.0000000000E+00
     0.0000000000E+00     0.0000000000E+00     0.0000000000E+00     0.0000000000E+00
     0.0000000000E+00     0.0000000000E+00     0.0000000000E+00     0.0000000000E+00
     0.0000000000E+00     0.0000000000E+00     0.0000000000E+00     0.0000000000E+00
     0.0000000000E+00     0.0000000000E+00     0.0000000000E+00     0.0000000000E+00
     0.0000000000E+00     0.0000000000E+00     0.0000000000E+00     0.0000000000E+00
     0.0000000000E+00     0.0000000000E+00     0.0000000000E+00     0.0000000000E+00
     0.0000000000E+00     0.0000000000E+00     0.0000000000E+00     0.0000000000E+00
     0.0000000000E+00     0.0000000000E+00     0.0000000000E+00     0.0000000000E+00
     0.0000000000E+00     0.0000000000E+00     0.0000000000E+00     0.0000000000E+00
     0.0000000000E+00     0.0000000000E+00     0.0000000000E+00     0.0000000000E+00
     0.0000000000E+00     0.0000000000E+00     0.0000000000E+00     0.0000000000E+00
     0.0000000000E+00     0.0000000000E+00     0.0000000000E+00     0.0000000000E+00
     0.0000000000E+00     0.0000000000E+00     0.0000000000E+00     0.0000000000E+00
     0.0000000000E+00     0.0000000000E+00     0.0000000000E+00     0.0000000000E+00
     0.0000000000E+00     0.0000000000E+00     0.0000000000E+00     0.0000000000E+00
     0.0000000000E+00     0.0000000000E+00     0.0000000000E+00     0.0000000000E+00
     0.0000000000E+00     0.0000000000E+00     0.0000000000E+00     0.0000000000E+00
     0.0000000000E+00     0.0000000000E+00     0.0000000000E+00     0.0000000000E+00
     0.0000000000E+00     0.0000000000E+00     0.0000000000E+00     0.0000000000E+00
     0.0000000000E+00     0.0000000000E+00     0.0000000000E+00     0.0000000000E+00
     0.0000000000E+00     0.0000000000E+00     0.0000000000E+00     0.0000000000E+00
     0.0000000000E+00     0.0000000000E+00     0.0000000000E+00     0.0000000000E+00
     0.0000000000E+00     0.0000000000E+00     0.0000000000E+00     0.0000000000E+00
     0.0000000000E+00     0.0000000000E+00     0.0000000000E+00     0.0000000000E+00
     0.0000000000E+00     0.0000000000E+00     0.0000000000E+00     0.0000000000E+00
     0.0000000000E+00     0.0000000000E+00     0.0000000000E+00     0.0000000000E+00
     0.0000000000E+00     0.0000000000E+00     0.0000000000E+00     0.0000000000E+00
     0.0000000000E+00     0.0000000000E+00     0.0000000000E+00     0.0000000000E+00
     0.0000000000E+00     0.0000000000E+00     0.0000000000E+00     0.0000000000E+00
     0.0000000000E+00     0.0000000000E+00     0.0000000000E+00     0.0000000000E+00
     0.0000000000E+00     0.0000000000E+00     0.0000000000E+00     0.0000000000E+00
     0.0000000000E+00     0.0000000000E+00     0.0000000000E+00     0.0000000000E+00
     0.0000000000E+00     0.0000000000E+00     0.0000000000E+00     0.0000000000E+00
     0.0000000000E+00     0.0000000000E+00     0.0000000000E+00     0.0000000000E+00
     0.0000000000E+00     0.0000000000E+00     0.0000000000E+00     0.0000000000E+00
     0.0000000000E+00     0.0000000000E+00     0.0000000000E+00     0.0000000000E+00
     0.0000000000E+00     0.0000000000E+00     0.0000000000E+00     0.0000000000E+00
     0.0000000000E+00     0.0000000000E+00     0.0000000000E+00     0.0000000000E+00
     0.0000000000E+00     0.0000000000E+00     0.0000000000E+00     0.0000000000E+00
     0.0000000000E+00     0.0000000000E+00     0.0000000000E+00     0.0000000000E+00
     0.0000000000E+00     0.0000000000E+00     0.0000000000E+00     0.0000000000E+00
     0.0000000000E+00     0.0000000000E+00     0.0000000000E+00     0.0000000000E+00
     0.0000000000E+00     0.0000000000E+00     0.0000000000E+00     0.0000000000E+00
     0.0000000000E+00     0.0000000000E+00     0.0000000000E+00     0.0000000000E+00
     0.0000000000E+00     0.0000000000E+00     0.0000000000E+00     0.0000000000E+00
     0.0000000000E+00     0.0000000000E+00     0.0000000000E+00     0.0000000000E+00
     0.0000000000E+00     0.0000000000E+00     0.0000000000E+00     0.0000000000E+00
     0.0000000000E+00     0.0000000000E+00     0.0000000000E+00     0.0000000000E+00
     0.0000000000E+00     0.0000000000E+00     0.0000000000E+00     0.0000000000E+00
     0.0000000000E+00     0.0000000000E+00     0.0000000000E+00     0.0000000000E+00
     0.0000000000E+00     0.0000000000E+00     0.0000000000E+00     0.0000000000E+00
     0.0000000000E+00     0.0000000000E+00     0.0000000000E+00     0.0000000000E+00
     0.0000000000E+00     0.0000000000E+00     0.0000000000E+00     0.0000000000E+00
     0.0000000000E+00     0.0000000000E+00     0.0000000000E+00     0.0000000000E+00
     0.0000000000E+00     0.0000000000E+00     0.0000000000E+00     0.0000000000E+00
     0.0000000000E+00     0.0000000000E+00     0.0000000000E+00     0.0000000000E+00
     0.0000000000E+00     0.0000000000E+00     0.0000000000E+00     0.0000000000E+00
     0.0000000000E+00     0.0000000000E+00     0.0000000000E+00     0.0000000000E+00
     0.0000000000E+00     0.0000000000E+00     0.0000000000E+00     0.0000000000E+00
     0.0000000000E+00     0.0000000000E+00     0.0000000000E+00     0.0000000000E+00
     0.0000000000E+00     0.0000000000E+00     0.0000000000E+00     0.0000000000E+00
     0.0000000000E+00     0.0000000000E+00     0.0000000000E+00     0.0000000000E+00
     0.0000000000E+00     0.0000000000E+00     0.0000000000E+00     0.0000000000E+00
     0.0000000000E+00     0.0000000000E+00     0.0000000000E+00     0.0000000000E+00
     0.0000000000E+00     0.0000000000E+00     0.0000000000E+00     0.0000000000E+00
     0.0000000000E+00     0.0000000000E+00     0.0000000000E+00     0.0000000000E+00
     0.0000000000E+00     0.0000000000E+00     0.0000000000E+00     0.0000000000E+00
     0.0000000000E+00     0.0000000000E+00     0.0000000000E+00     0.0000000000E+00
     0.0000000000E+00     0.0000000000E+00     0.0000000000E+00     0.0000000000E+00
     0.0000000000E+00     0.0000000000E+00     0.0000000000E+00     0.0000000000E+00
     0.0000000000E+00     0.0000000000E+00     0.0000000000E+00     0.0000000000E+00
     0.0000000000E+00     0.0000000000E+00     0.0000000000E+00     0.0000000000E+00
     0.0000000000E+00     0.0000000000E+00     0.0000000000E+00     0.0000000000E+00
     0.0000000000E+00     0.0000000000E+00     0.0000000000E+00     0.0000000000E+00
     0.0000000000E+00     0.0000000000E+00     0.0000000000E+00     0.0000000000E+00
     0.0000000000E+00     0.0000000000E+00     0.0000000000E+00     0.0000000000E+00
     0.0000000000E+00     0.0000000000E+00     0.0000000000E+00     0.0000000000E+00
     0.0000000000E+00     0.0000000000E+00     0.0000000000E+00     0.0000000000E+00
     0.0000000000E+00     0.0000000000E+00     0.0000000000E+00     0.0000000000E+00
     0.0000000000E+00     0.0000000000E+00     0.0000000000E+00     0.0000000000E+00
     0.0000000000E+00     0.0000000000E+00     0.0000000000E+00     0.0000000000E+00
     0.0000000000E+00     0.0000000000E+00     0.0000000000E+00     0.0000000000E+00
     0.0000000000E+00     0.0000000000E+00     0.0000000000E+00     0.0000000000E+00
     0.0000000000E+00     0.0000000000E+00     0.0000000000E+00     0.0000000000E+00
     0.0000000000E+00     0.0000000000E+00     0.0000000000E+00     0.0000000000E+00
     0.0000000000E+00     0.0000000000E+00     0.0000000000E+00     0.0000000000E+00
     0.0000000000E+00     0.0000000000E+00     0.0000000000E+00     0.0000000000E+00
     0.0000000000E+00     0.0000000000E+00     0.0000000000E+00     0.0000000000E+00
     0.0000000000E+00     0.0000000000E+00     0.0000000000E+00     0.0000000000E+00
     0.0000000000E+00     0.0000000000E+00     0.0000000000E+00     0.0000000000E+00
     0.0000000000E+00     0.0000000000E+00     0.0000000000E+00     0.0000000000E+00
     0.0000000000E+00     0.0000000000E+00     0.0000000000E+00     0.0000000000E+00
     0.0000000000E+00     0.0000000000E+00     0.0000000000E+00     0.0000000000E+00
     0.0000000000E+00     0.0000000000E+00     0.0000000000E+00     0.0000000000E+00
     0.0000000000E+00     0.0000000000E+00     0.0000000000E+00     0.0000000000E+00
     0.0000000000E+00     0.0000000000E+00     0.0000000000E+00     0.0000000000E+00
     0.0000000000E+00     0.0000000000E+00     0.0000000000E+00     0.0000000000E+00
     0.0000000000E+00     0.0000000000E+00     0.0000000000E+00     0.0000000000E+00
     0.0000000000E+00     0.0000000000E+00     0.0000000000E+00     0.0000000000E+00
     0.0000000000E+00     0.0000000000E+00     0.0000000000E+00     0.0000000000E+00
     0.0000000000E+00     0.0000000000E+00     0.0000000000E+00     0.0000000000E+00
     0.0000000000E+00     0.0000000000E+00     0.0000000000E+00     0.0000000000E+00
     0.0000000000E+00     0.0000000000E+00     0.0000000000E+00     0.0000000000E+00
     0.0000000000E+00     0.0000000000E+00     0.0000000000E+00     0.0000000000E+00
     0.0000000000E+00     0.0000000000E+00     0.0000000000E+00     0.0000000000E+00
     0.0000000000E+00     0.0000000000E+00     0.0000000000E+00     0.0000000000E+00
     0.0000000000E+00     0.0000000000E+00     0.0000000000E+00     0.0000000000E+00
     0.0000000000E+00     0.0000000000E+00     0.0000000000E+00     0.0000000000E+00
     0.0000000000E+00     0.0000000000E+00     0.0000000000E+00     0.0000000000E+00
     0.0000000000E+00     0.0000000000E+00     0.0000000000E+00     0.0000000000E+00
     0.0000000000E+00     0.0000000000E+00     0.0000000000E+00     0.0000000000E+00
     0.0000000000E+00     0.0000000000E+00     0.0000000000E+00     0.0000000000E+00
     0.0000000000E+00     0.0000000000E+00     0.0000000000E+00     0.0000000000E+00
     0.0000000000E+00     0.0000000000E+00     0.0000000000E+00     0.0000000000E+00
     0.0000000000E+00     0.0000000000E+00     0.0000000000E+00     0.0000000000E+00
     0.0000000000E+00     0.0000000000E+00     0.0000000000E+00     0.0000000000E+00
     0.0000000000E+00     0.0000000000E+00     0.0000000000E+00     0.0000000000E+00
     0.0000000000E+00     0.0000000000E+00     0.0000000000E+00     0.0000000000E+00
     0.0000000000E+00     0.0000000000E+00     0.0000000000E+00     0.0000000000E+00
     0.0000000000E+00     0.0000000000E+00     0.0000000000E+00     0.0000000000E+00
     0.0000000000E+00     0.0000000000E+00     0.0000000000E+00     0.0000000000E+00
     0.0000000000E+00     0.0000000000E+00     0.0000000000E+00     0.0000000000E+00
     0.0000000000E+00     0.0000000000E+00     0.0000000000E+00     0.0000000000E+00
     0.0000000000E+00     0.0000000000E+00     0.0000000000E+00     0.0000000000E+00
     0.0000000000E+00     0.0000000000E+00     0.0000000000E+00     0.0000000000E+00
     0.0000000000E+00     0.0000000000E+00     0.0000000000E+00     0.0000000000E+00
     0.0000000000E+00     0.0000000000E+00     0.0000000000E+00     0.0000000000E+00
     0.0000000000E+00     0.0000000000E+00     0.0000000000E+00     0.0000000000E+00
     0.0000000000E+00     0.0000000000E+00     0.0000000000E+00     0.0000000000E+00
     0.0000000000E+00     0.0000000000E+00     0.0000000000E+00     0.0000000000E+00
     0.0000000000E+00     0.0000000000E+00     0.0000000000E+00     0.0000000000E+00
     0.0000000000E+00     0.0000000000E+00     0.0000000000E+00     0.0000000000E+00
     0.0000000000E+00     0.0000000000E+00     0.0000000000E+00     0.0000000000E+00
     0.0000000000E+00     0.0000000000E+00     0.0000000000E+00     0.0000000000E+00
     0.0000000000E+00     0.0000000000E+00     0.0000000000E+00     0.0000000000E+00
     0.0000000000E+00     0.0000000000E+00     0.0000000000E+00     0.0000000000E+00
     0.0000000000E+00     0.0000000000E+00     0.0000000000E+00     0.0000000000E+00
     0.0000000000E+00     0.0000000000E+00     0.0000000000E+00     0.0000000000E+00
     0.0000000000E+00     0.0000000000E+00     0.0000000000E+00     0.0000000000E+00
     0.0000000000E+00     0.0000000000E+00     0.0000000000E+00     0.0000000000E+00
     0.0000000000E+00     0.0000000000E+00     0.0000000000E+00     0.0000000000E+00
     0.0000000000E+00     0.0000000000E+00     0.0000000000E+00     0.0000000000E+00
     0.0000000000E+00     0.0000000000E+00     0.0000000000E+00     0.0000000000E+00
     0.0000000000E+00     0.0000000000E+00     0.0000000000E+00     0.0000000000E+00
     0.0000000000E+00     0.0000000000E+00     0.0000000000E+00     0.0000000000E+00
     0.0000000000E+00     0.0000000000E+00     0.0000000000E+00     0.0000000000E+00
     0.0000000000E+00     0.0000000000E+00     0.0000000000E+00     0.0000000000E+00
     0.0000000000E+00     0.0000000000E+00     0.0000000000E+00     0.0000000000E+00
     0.0000000000E+00     0.0000000000E+00     0.0000000000E+00     0.0000000000E+00
     0.0000000000E+00     0.0000000000E+00     0.0000000000E+00     0.0000000000E+00
     0.0000000000E+00     0.0000000000E+00     0.0000000000E+00     0.0000000000E+00
     0.0000000000E+00     0.0000000000E+00     0.0000000000E+00     0.0000000000E+00
     0.0000000000E+00     0.0000000000E+00     0.0000000000E+00     0.0000000000E+00
     0.0000000000E+00     0.0000000000E+00     0.0000000000E+00     0.0000000000E+00
     0.0000000000E+00     0.0000000000E+00     0.0000000000E+00     0.0000000000E+00
     0.0000000000E+00     0.0000000000E+00     0.0000000000E+00     0.0000000000E+00
     0.0000000000E+00     0.0000000000E+00     0.0000000000E+00     0.0000000000E+00
     0.0000000000E+00     0.0000000000E+00     0.0000000000E+00     0.0000000000E+00
     0.0000000000E+00     0.0000000000E+00     0.0000000000E+00     0.0000000000E+00
     0.0000000000E+00     0.0000000000E+00     0.0000000000E+00     0.0000000000E+00
     0.0000000000E+00     0.0000000000E+00     0.0000000000E+00     0.0000000000E+00
     0.0000000000E+00     0.0000000000E+00     0.0000000000E+00     0.0000000000E+00
     0.0000000000E+00     0.0000000000E+00     0.0000000000E+00     0.0000000000E+00
     0.0000000000E+00     0.0000000000E+00     0.0000000000E+00     0.0000000000E+00
     0.0000000000E+00     0.0000000000E+00     0.0000000000E+00     0.0000000000E+00
     0.0000000000E+00     0.0000000000E+00     0.0000000000E+00     0.0000000000E+00
     0.0000000000E+00     0.0000000000E+00     0.0000000000E+00     0.0000000000E+00
     0.0000000000E+00     0.0000000000E+00     0.0000000000E+00     0.0000000000E+00
     0.0000000000E+00     0.0000000000E+00     0.0000000000E+00     0.0000000000E+00
     0.0000000000E+00     0.0000000000E+00     0.0000000000E+00     0.0000000000E+00
     0.0000000000E+00     0.0000000000E+00     0.0000000000E+00     0.0000000000E+00
     0.0000000000E+00     0.0000000000E+00     0.0000000000E+00     0.0000000000E+00
     0.0000000000E+00     0.0000000000E+00     0.0000000000E+00     0.0000000000E+00
     0.0000000000E+00     0.0000000000E+00     0.0000000000E+00     0.0000000000E+00
     0.0000000000E+00     0.0000000000E+00     0.0000000000E+00     0.0000000000E+00
     0.0000000000E+00     0.0000000000E+00     0.0000000000E+00     0.0000000000E+00
     0.0000000000E+00     0.0000000000E+00     0.0000000000E+00     0.0000000000E+00
     0.0000000000E+00     0.0000000000E+00     0.0000000000E+00     0.0000000000E+00
     0.0000000000E+00     0.0000000000E+00     0.0000000000E+00     0.0000000000E+00
     0.0000000000E+00     0.0000000000E+00     0.0000000000E+00     0.0000000000E+00
     0.0000000000E+00     0.0000000000E+00     0.0000000000E+00     0.0000000000E+00
     0.0000000000E+00     0.0000000000E+00     0.0000000000E+00     0.0000000000E+00
     0.0000000000E+00     0.0000000000E+00     0.0000000000E+00     0.0000000000E+00
     0.0000000000E+00     0.0000000000E+00     0.0000000000E+00     0.0000000000E+00
     0.0000000000E+00     0.0000000000E+00     0.0000000000E+00     0.0000000000E+00
     0.0000000000E+00     0.0000000000E+00     0.0000000000E+00     0.0000000000E+00
     0.0000000000E+00     0.0000000000E+00     0.0000000000E+00     0.0000000000E+00
     0.0000000000E+00     0.0000000000E+00     0.0000000000E+00     0.0000000000E+00
     0.0000000000E+00     0.0000000000E+00     0.0000000000E+00     0.0000000000E+00
     0.0000000000E+00     0.0000000000E+00     0.0000000000E+00     0.0000000000E+00
     0.0000000000E+00     0.0000000000E+00     0.0000000000E+00     0.0000000000E+00
     0.0000000000E+00     0.0000000000E+00     0.0000000000E+00     0.0000000000E+00
     0.0000000000E+00     0.0000000000E+00     0.0000000000E+00     0.0000000000E+00
     0.0000000000E+00     0.0000000000E+00     0.0000000000E+00     0.0000000000E+00
     0.0000000000E+00     0.0000000000E+00     0.0000000000E+00     0.0000000000E+00
     0.0000000000E+00     0.0000000000E+00     0.0000000000E+00     0.0000000000E+00
     0.0000000000E+00     0.0000000000E+00     0.0000000000E+00     0.0000000000E+00
     0.0000000000E+00     0.0000000000E+00     0.0000000000E+00     0.0000000000E+00
     0.0000000000E+00     0.0000000000E+00     0.0000000000E+00     0.0000000000E+00
     0.0000000000E+00     0.0000000000E+00     0.0000000000E+00     0.0000000000E+00
     0.0000000000E+00     0.0000000000E+00     0.0000000000E+00     0.0000000000E+00
     0.0000000000E+00     0.0000000000E+00     0.0000000000E+00     0.0000000000E+00
     0.0000000000E+00     0.0000000000E+00     0.0000000000E+00     0.0000000000E+00
     0.0000000000E+00     0.0000000000E+00     0.0000000000E+00     0.0000000000E+00
     0.0000000000E+00     0.0000000000E+00     0.0000000000E+00     0.0000000000E+00
     0.0000000000E+00     0.0000000000E+00     0.0000000000E+00     0.0000000000E+00
     0.0000000000E+00     0.0000000000E+00     0.0000000000E+00     0.0000000000E+00
     0.0000000000E+00     0.0000000000E+00     0.0000000000E+00     0.0000000000E+00
     0.0000000000E+00     0.0000000000E+00     0.0000000000E+00     0.0000000000E+00
     0.0000000000E+00     0.0000000000E+00     0.0000000000E+00     0.0000000000E+00
     0.0000000000E+00     0.0000000000E+00     0.0000000000E+00     0.0000000000E+00
     0.0000000000E+00     0.0000000000E+00     0.0000000000E+00     0.0000000000E+00
     0.0000000000E+00     0.0000000000E+00     0.0000000000E+00     0.0000000000E+00
     0.0000000000E+00     0.0000000000E+00     0.0000000000E+00     0.0000000000E+00
     0.0000000000E+00     0.0000000000E+00     0.0000000000E+00     0.0000000000E+00
     0.0000000000E+00     0.0000000000E+00     0.0000000000E+00     0.0000000000E+00
     0.0000000000E+00     0.0000000000E+00     0.0000000000E+00     0.0000000000E+00
     0.0000000000E+00     0.0000000000E+00     0.0000000000E+00     0.0000000000E+00
     0.0000000000E+00     0.0000000000E+00     0.0000000000E+00     0.0000000000E+00
     0.0000000000E+00     0.0000000000E+00     0.0000000000E+00     0.0000000000E+00
     0.0000000000E+00     0.0000000000E+00     0.0000000000E+00     0.0000000000E+00
     0.0000000000E+00     0.0000000000E+00     0.0000000000E+00     0.0000000000E+00
     0.0000000000E+00     0.0000000000E+00     0.0000000000E+00     0.0000000000E+00
     0.0000000000E+00     0.0000000000E+00     0.0000000000E+00     0.0000000000E+00
     0.0000000000E+00     0.0000000000E+00     0.0000000000E+00     0.0000000000E+00
     0.0000000000E+00     0.0000000000E+00     0.0000000000E+00     0.0000000000E+00
     0.0000000000E+00     0.0000000000E+00     0.0000000000E+00     0.0000000000E+00
     0.0000000000E+00     0.0000000000E+00     0.0000000000E+00     0.0000000000E+00
     0.0000000000E+00     0.0000000000E+00     0.0000000000E+00     0.0000000000E+00
     0.0000000000E+00     0.0000000000E+00     0.0000000000E+00     0.0000000000E+00
     0.0000000000E+00     0.0000000000E+00     0.0000000000E+00     0.0000000000E+00
     0.0000000000E+00     0.0000000000E+00     0.0000000000E+00     0.0000000000E+00
     0.0000000000E+00     0.0000000000E+00     0.0000000000E+00     0.0000000000E+00
     0.0000000000E+00     0.0000000000E+00     0.0000000000E+00     0.0000000000E+00
     0.0000000000E+00     0.0000000000E+00     0.0000000000E+00     0.0000000000E+00
     0.0000000000E+00     0.0000000000E+00     0.0000000000E+00     0.0000000000E+00
     0.0000000000E+00     0.0000000000E+00     0.0000000000E+00     0.0000000000E+00
     0.0000000000E+00     0.0000000000E+00     0.0000000000E+00     0.0000000000E+00
     0.0000000000E+00     0.0000000000E+00     0.0000000000E+00     0.0000000000E+00
     0.0000000000E+00     0.0000000000E+00     0.0000000000E+00     0.0000000000E+00
     0.0000000000E+00     0.0000000000E+00     0.0000000000E+00     0.0000000000E+00
     0.0000000000E+00     0.0000000000E+00     0.0000000000E+00     0.0000000000E+00
     0.0000000000E+00     0.0000000000E+00     0.0000000000E+00     0.0000000000E+00
     0.0000000000E+00     0.0000000000E+00     0.0000000000E+00     0.0000000000E+00
     0.0000000000E+00     0.0000000000E+00     0.0000000000E+00     0.0000000000E+00
     0.0000000000E+00     0.0000000000E+00     0.0000000000E+00     0.0000000000E+00
     0.0000000000E+00     0.0000000000E+00     0.0000000000E+00     0.0000000000E+00
     0.0000000000E+00     0.0000000000E+00     0.0000000000E+00     0.0000000000E+00
     0.0000000000E+00     0.0000000000E+00     0.0000000000E+00     0.0000000000E+00
     0.0000000000E+00     0.0000000000E+00     0.0000000000E+00     0.0000000000E+00
     0.0000000000E+00     0.0000000000E+00     0.0000000000E+00     0.0000000000E+00
     0.0000000000E+00     0.0000000000E+00     0.0000000000E+00     0.0000000000E+00
     0.0000000000E+00     0.0000000000E+00     0.0000000000E+00     0.0000000000E+00
     0.0000000000E+00     0.0000000000E+00     0.0000000000E+00     0.0000000000E+00
     0.0000000000E+00     0.0000000000E+00     0.0000000000E+00     0.0000000000E+00
     0.0000000000E+00     0.0000000000E+00     0.0000000000E+00     0.0000000000E+00
     0.0000000000E+00     0.0000000000E+00     0.0000000000E+00     0.0000000000E+00
     0.0000000000E+00     0.0000000000E+00     0.0000000000E+00     0.0000000000E+00
     0.0000000000E+00     0.0000000000E+00     0.0000000000E+00     0.0000000000E+00
     0.0000000000E+00     0.0000000000E+00     0.0000000000E+00     0.0000000000E+00
     0.0000000000E+00     0.0000000000E+00     0.0000000000E+00     0.0000000000E+00
     0.0000000000E+00     0.0000000000E+00     0.0000000000E+00     0.0000000000E+00
     0.0000000000E+00     0.0000000000E+00     0.0000000000E+00     0.0000000000E+00
     0.0000000000E+00     0.0000000000E+00     0.0000000000E+00     0.0000000000E+00
     0.0000000000E+00     0.0000000000E+00     0.0000000000E+00     0.0000000000E+00
     0.0000000000E+00     0.0000000000E+00     0.0000000000E+00     0.0000000000E+00
     0.0000000000E+00     0.0000000000E+00     0.0000000000E+00     0.0000000000E+00
     0.0000000000E+00     0.0000000000E+00     0.0000000000E+00     0.0000000000E+00
     0.0000000000E+00     0.0000000000E+00     0.0000000000E+00     0.0000000000E+00
     0.0000000000E+00     0.0000000000E+00     0.0000000000E+00     0.0000000000E+00
     0.0000000000E+00     0.0000000000E+00     0.0000000000E+00     0.0000000000E+00
     0.0000000000E+00     0.0000000000E+00     0.0000000000E+00     0.0000000000E+00
     0.0000000000E+00     0.0000000000E+00     0.0000000000E+00     0.0000000000E+00
     0.0000000000E+00     0.0000000000E+00     0.0000000000E+00     0.0000000000E+00
     0.0000000000E+00     0.0000000000E+00     0.0000000000E+00     0.0000000000E+00
     0.0000000000E+00     0.0000000000E+00     0.0000000000E+00     0.0000000000E+00
     0.0000000000E+00     0.0000000000E+00     0.0000000000E+00     0.0000000000E+00
     0.0000000000E+00     0.0000000000E+00     0.0000000000E+00     0.0000000000E+00
     0.0000000000E+00     0.0000000000E+00     0.0000000000E+00     0.0000000000E+00
     0.0000000000E+00     0.0000000000E+00     0.0000000000E+00     0.0000000000E+00
     0.0000000000E+00     0.0000000000E+00     0.0000000000E+00     0.0000000000E+00
     0.0000000000E+00     0.0000000000E+00     0.0000000000E+00     0.0000000000E+00
     0.0000000000E+00     0.0000000000E+00     0.0000000000E+00     0.0000000000E+00
     0.0000000000E+00     0.0000000000E+00     0.0000000000E+00     0.0000000000E+00
     0.0000000000E+00     0.0000000000E+00     0.0000000000E+00     0.0000000000E+00
     0.0000000000E+00     0.0000000000E+00     0.0000000000E+00     0.0000000000E+00
     0.0000000000E+00     0.0000000000E+00     0.0000000000E+00     0.0000000000E+00
     0.0000000000E+00     0.0000000000E+00     0.0000000000E+00     0.0000000000E+00
     0.0000000000E+00     0.0000000000E+00     0.0000000000E+00     0.0000000000E+00
     0.0000000000E+00     0.0000000000E+00     0.0000000000E+00     0.0000000000E+00
     0.0000000000E+00     0.0000000000E+00     0.0000000000E+00     0.0000000000E+00
     0.0000000000E+00     0.0000000000E+00     0.0000000000E+00     0.0000000000E+00
     0.0000000000E+00     0.0000000000E+00     0.0000000000E+00     0.0000000000E+00
     0.0000000000E+00     0.0000000000E+00     0.0000000000E+00     0.0000000000E+00
     0.0000000000E+00     0.0000000000E+00     0.0000000000E+00     0.0000000000E+00
     0.0000000000E+00     0.0000000000E+00     0.0000000000E+00     0.0000000000E+00
     0.0000000000E+00     0.0000000000E+00     0.0000000000E+00     0.0000000000E+00
     0.0000000000E+00     0.0000000000E+00     0.0000000000E+00     0.0000000000E+00
     0.0000000000E+00     0.0000000000E+00     0.0000000000E+00     0.0000000000E+00
     0.0000000000E+00     0.0000000000E+00     0.0000000000E+00     0.0000000000E+00
     0.0000000000E+00     0.0000000000E+00     0.0000000000E+00     0.0000000000E+00
     0.0000000000E+00     0.0000000000E+00     0.0000000000E+00     0.0000000000E+00
     0.0000000000E+00     0.0000000000E+00     0.0000000000E+00     0.0000000000E+00
     0.0000000000E+00     0.0000000000E+00     0.0000000000E+00     0.0000000000E+00
     0.0000000000E+00     0.0000000000E+00     0.0000000000E+00     0.0000000000E+00
     0.0000000000E+00     0.0000000000E+00     0.0000000000E+00     0.0000000000E+00
     0.0000000000E+00     0.0000000000E+00     0.0000000000E+00     0.0000000000E+00
     0.0000000000E+00     0.0000000000E+00     0.0000000000E+00     0.0000000000E+00
     0.0000000000E+00     0.0000000000E+00     0.0000000000E+00     0.0000000000E+00
     0.0000000000E+00     0.0000000000E+00     0.0000000000E+00     0.0000000000E+00
     0.0000000000E+00     0.0000000000E+00     0.0000000000E+00     0.0000000000E+00
     0.0000000000E+00     0.0000000000E+00     0.0000000000E+00     0.0000000000E+00
     0.0000000000E+00     0.0000000000E+00     0.0000000000E+00     0.0000000000E+00
     0.0000000000E+00     0.0000000000E+00     0.0000000000E+00     0.0000000000E+00
     0.0000000000E+00     0.0000000000E+00     0.0000000000E+00     0.0000000000E+00
     0.0000000000E+00     0.0000000000E+00     0.0000000000E+00     0.0000000000E+00
     0.0000000000E+00     0.0000000000E+00     0.0000000000E+00     0.0000000000E+00
     0.0000000000E+00     0.0000000000E+00     0.0000000000E+00     0.0000000000E+00
     0.0000000000E+00     0.0000000000E+00     0.0000000000E+00     0.0000000000E+00
     0.0000000000E+00     0.0000000000E+00     0.0000000000E+00     0.0000000000E+00
     0.0000000000E+00     0.0000000000E+00     0.0000000000E+00     0.0000000000E+00
     0.0000000000E+00     0.0000000000E+00     0.0000000000E+00     0.0000000000E+00
     0.0000000000E+00     0.0000000000E+00     0.0000000000E+00     0.0000000000E+00
     0.0000000000E+00     0.0000000000E+00     0.0000000000E+00     0.0000000000E+00
     0.0000000000E+00     0.0000000000E+00     0.0000000000E+00     0.0000000000E+00
     0.0000000000E+00     0.0000000000E+00     0.0000000000E+00     0.0000000000E+00
     0.0000000000E+00     0.0000000000E+00     0.0000000000E+00     0.0000000000E+00
     0.0000000000E+00     0.0000000000E+00     0.0000000000E+00     0.0000000000E+00
     0.0000000000E+00     0.0000000000E+00     0.0000000000E+00     0.0000000000E+00
     0.0000000000E+00     0.0000000000E+00     0.0000000000E+00     0.0000000000E+00
     0.0000000000E+00     0.0000000000E+00     0.0000000000E+00     0.0000000000E+00
     0.0000000000E+00     0.0000000000E+00     0.0000000000E+00     0.0000000000E+00
     0.0000000000E+00     0.0000000000E+00     0.0000000000E+00     0.0000000000E+00
     0.0000000000E+00     0.0000000000E+00     0.0000000000E+00     0.0000000000E+00
     0.0000000000E+00     0.0000000000E+00     0.0000000000E+00     0.0000000000E+00
     0.0000000000E+00     0.0000000000E+00     0.0000000000E+00     0.0000000000E+00
     0.0000000000E+00     0.0000000000E+00     0.0000000000E+00     0.0000000000E+00
     0.0000000000E+00     0.0000000000E+00     0.0000000000E+00     0.0000000000E+00
     0.0000000000E+00     0.0000000000E+00     0.0000000000E+00     0.0000000000E+00
     0.0000000000E+00     0.0000000000E+00     0.0000000000E+00     0.0000000000E+00
     0.0000000000E+00     0.0000000000E+00     0.0000000000E+00     0.0000000000E+00
     0.0000000000E+00     0.0000000000E+00     0.0000000000E+00     0.0000000000E+00
     0.0000000000E+00     0.0000000000E+00     0.0000000000E+00     0.0000000000E+00
     0.0000000000E+00     0.0000000000E+00     0.0000000000E+00     0.0000000000E+00
     0.0000000000E+00     0.0000000000E+00     0.0000000000E+00     0.0000000000E+00
     0.0000000000E+00     0.0000000000E+00     0.0000000000E+00     0.0000000000E+00
     0.0000000000E+00     0.0000000000E+00     0.0000000000E+00     0.0000000000E+00
     0.0000000000E+00     0.0000000000E+00     0.0000000000E+00     0.0000000000E+00
     0.0000000000E+00     0.0000000000E+00     0.0000000000E+00     0.0000000000E+00
     0.0000000000E+00     0.0000000000E+00     0.0000000000E+00     0.0000000000E+00
     0.0000000000E+00     0.0000000000E+00     0.0000000000E+00     0.0000000000E+00
     0.0000000000E+00     0.0000000000E+00     0.0000000000E+00     0.0000000000E+00
     0.0000000000E+00     0.0000000000E+00     0.0000000000E+00     0.0000000000E+00
     0.0000000000E+00     0.0000000000E+00     0.0000000000E+00     0.0000000000E+00
     0.0000000000E+00     0.0000000000E+00     0.0000000000E+00     0.0000000000E+00
     0.0000000000E+00     0.0000000000E+00     0.0000000000E+00     0.0000000000E+00
     0.0000000000E+00     0.0000000000E+00     0.0000000000E+00     0.0000000000E+00
     0.0000000000E+00     0.0000000000E+00     0.0000000000E+00     0.0000000000E+00
     0.0000000000E+00     0.0000000000E+00     0.0000000000E+00     0.0000000000E+00
     0.0000000000E+00     0.0000000000E+00     0.0000000000E+00     0.0000000000E+00
     0.0000000000E+00     0.0000000000E+00     0.0000000000E+00     0.0000000000E+00
     0.0000000000E+00     0.0000000000E+00     0.0000000000E+00     0.0000000000E+00
     0.0000000000E+00     0.0000000000E+00     0.0000000000E+00     0.0000000000E+00
     0.0000000000E+00     0.0000000000E+00     0.0000000000E+00     0.0000000000E+00
     0.0000000000E+00     0.0000000000E+00     0.0000000000E+00     0.0000000000E+00
     0.0000000000E+00     0.0000000000E+00     0.0000000000E+00     0.0000000000E+00
     0.0000000000E+00     0.0000000000E+00     0.0000000000E+00     0.0000000000E+00
     0.0000000000E+00     0.0000000000E+00     0.0000000000E+00     0.0000000000E+00
     0.0000000000E+00     0.0000000000E+00     0.0000000000E+00     0.0000000000E+00
     0.0000000000E+00     0.0000000000E+00     0.0000000000E+00     0.0000000000E+00
     0.0000000000E+00     0.0000000000E+00     0.0000000000E+00     0.0000000000E+00
     0.0000000000E+00     0.0000000000E+00     0.0000000000E+00     0.0000000000E+00
     0.0000000000E+00     0.0000000000E+00     0.0000000000E+00     0.0000000000E+00
     0.0000000000E+00     0.0000000000E+00     0.0000000000E+00     0.0000000000E+00
     0.0000000000E+00     0.0000000000E+00     0.0000000000E+00     0.0000000000E+00
     0.0000000000E+00     0.0000000000E+00     0.0000000000E+00     0.0000000000E+00
     0.0000000000E+00     0.0000000000E+00     0.0000000000E+00     0.0000000000E+00
     0.0000000000E+00     0.0000000000E+00     0.0000000000E+00     0.0000000000E+00
     0.0000000000E+00     0.0000000000E+00     0.0000000000E+00     0.0000000000E+00
     0.0000000000E+00     0.0000000000E+00     0.0000000000E+00     0.0000000000E+00
     0.0000000000E+00     0.0000000000E+00     0.0000000000E+00     0.0000000000E+00
     0.0000000000E+00     0.0000000000E+00     0.0000000000E+00     0.0000000000E+00
     0.0000000000E+00     0.0000000000E+00     0.0000000000E+00     0.0000000000E+00
     0.0000000000E+00     0.0000000000E+00     0.0000000000E+00     0.0000000000E+00
     0.0000000000E+00     0.0000000000E+00     0.0000000000E+00     0.0000000000E+00
     0.0000000000E+00     0.0000000000E+00     0.0000000000E+00     0.0000000000E+00
     0.0000000000E+00     0.0000000000E+00     0.0000000000E+00     0.0000000000E+00
     0.0000000000E+00     0.0000000000E+00     0.0000000000E+00     0.0000000000E+00
     0.0000000000E+00     0.0000000000E+00     0.0000000000E+00     0.0000000000E+00
     0.0000000000E+00     0.0000000000E+00     0.0000000000E+00     0.0000000000E+00
     0.0000000000E+00     0.0000000000E+00     0.0000000000E+00     0.0000000000E+00
     0.0000000000E+00     0.0000000000E+00     0.0000000000E+00     0.0000000000E+00
     0.0000000000E+00     0.0000000000E+00     0.0000000000E+00     0.0000000000E+00
     0.0000000000E+00     0.0000000000E+00     0.0000000000E+00     0.0000000000E+00
     0.0000000000E+00     0.0000000000E+00     0.0000000000E+00     0.0000000000E+00
     0.0000000000E+00     0.0000000000E+00     0.0000000000E+00     0.0000000000E+00
     0.0000000000E+00     0.0000000000E+00     0.0000000000E+00     0.0000000000E+00
     0.0000000000E+00     0.0000000000E+00     0.0000000000E+00     0.0000000000E+00
     0.0000000000E+00     0.0000000000E+00     0.0000000000E+00     0.0000000000E+00
     0.0000000000E+00     0.0000000000E+00     0.0000000000E+00     0.0000000000E+00
     0.0000000000E+00     0.0000000000E+00     0.0000000000E+00     0.0000000000E+00
     0.0000000000E+00     0.0000000000E+00     0.0000000000E+00     0.0000000000E+00
     0.0000000000E+00     0.0000000000E+00     0.0000000000E+00     0.0000000000E+00
     0.0000000000E+00     0.0000000000E+00     0.0000000000E+00     0.0000000000E+00
     0.0000000000E+00     0.0000000000E+00     0.0000000000E+00     0.0000000000E+00
     0.0000000000E+00     0.0000000000E+00     0.0000000000E+00     0.0000000000E+00
     0.0000000000E+00     0.0000000000E+00     0.0000000000E+00     0.0000000000E+00
     0.0000000000E+00     0.0000000000E+00     0.0000000000E+00     0.0000000000E+00
     0.0000000000E+00     0.0000000000E+00     0.0000000000E+00     0.0000000000E+00
     0.0000000000E+00     0.0000000000E+00     0.0000000000E+00     0.0000000000E+00
     0.0000000000E+00     0.0000000000E+00     0.0000000000E+00     0.0000000000E+00
     0.0000000000E+00     0.0000000000E+00     0.0000000000E+00     0.0000000000E+00
     0.0000000000E+00     0.0000000000E+00     0.0000000000E+00     0.0000000000E+00
     0.0000000000E+00     0.0000000000E+00     0.0000000000E+00     0.0000000000E+00
     0.0000000000E+00     0.0000000000E+00     0.0000000000E+00     0.0000000000E+00
     0.0000000000E+00     0.0000000000E+00     0.0000000000E+00     0.0000000000E+00
     0.0000000000E+00     0.0000000000E+00     0.0000000000E+00     0.0000000000E+00
     0.0000000000E+00     0.0000000000E+00     0.0000000000E+00     0.0000000000E+00
     0.0000000000E+00     0.0000000000E+00     0.0000000000E+00     0.0000000000E+00
     0.0000000000E+00     0.0000000000E+00     0.0000000000E+00     0.0000000000E+00
     0.0000000000E+00     0.0000000000E+00     0.0000000000E+00     0.0000000000E+00
     0.0000000000E+00     0.0000000000E+00     0.0000000000E+00     0.0000000000E+00
     0.0000000000E+00     0.0000000000E+00     0.0000000000E+00     0.0000000000E+00
     0.0000000000E+00     0.0000000000E+00     0.0000000000E+00     0.0000000000E+00
     0.0000000000E+00     0.0000000000E+00     0.0000000000E+00     0.0000000000E+00
     0.0000000000E+00     0.0000000000E+00     0.0000000000E+00     0.0000000000E+00
     0.0000000000E+00     0.0000000000E+00     0.0000000000E+00     0.0000000000E+00
     0.0000000000E+00     0.0000000000E+00     0.0000000000E+00     0.0000000000E+00
     0.0000000000E+00     0.0000000000E+00     0.0000000000E+00     0.0000000000E+00
     0.0000000000E+00     0.0000000000E+00     0.0000000000E+00     0.0000000000E+00
     0.0000000000E+00     0.0000000000E+00     0.0000000000E+00     0.0000000000E+00
     0.0000000000E+00     0.0000000000E+00     0.0000000000E+00     0.0000000000E+00
     0.0000000000E+00     0.0000000000E+00     0.0000000000E+00     0.0000000000E+00
     0.0000000000E+00     0.0000000000E+00     0.0000000000E+00     0.0000000000E+00
     0.0000000000E+00     0.0000000000E+00     0.0000000000E+00     0.0000000000E+00
     0.0000000000E+00     0.0000000000E+00     0.0000000000E+00     0.0000000000E+00
     0.0000000000E+00     0.0000000000E+00     0.0000000000E+00     0.0000000000E+00
     0.0000000000E+00     0.0000000000E+00     0.0000000000E+00     0.0000000000E+00
     0.0000000000E+00     0.0000000000E+00     0.0000000000E+00     0.0000000000E+00
     0.0000000000E+00     0.0000000000E+00     0.0000000000E+00     0.0000000000E+00
     0.0000000000E+00     0.0000000000E+00     0.0000000000E+00     0.0000000000E+00
     0.0000000000E+00     0.0000000000E+00     0.0000000000E+00     0.0000000000E+00
     0.0000000000E+00     0.0000000000E+00     0.0000000000E+00     0.0000000000E+00
     0.0000000000E+00     0.0000000000E+00     0.0000000000E+00     0.0000000000E+00
     0.0000000000E+00     0.0000000000E+00     0.0000000000E+00     0.0000000000E+00
     0.0000000000E+00     0.0000000000E+00     0.0000000000E+00     0.0000000000E+00
     0.0000000000E+00     0.0000000000E+00     0.0000000000E+00     0.0000000000E+00
     0.0000000000E+00     0.0000000000E+00     0.0000000000E+00     0.0000000000E+00
     0.0000000000E+00     0.0000000000E+00     0.0000000000E+00     0.0000000000E+00
     0.0000000000E+00     0.0000000000E+00     0.0000000000E+00     0.0000000000E+00
     0.0000000000E+00     0.0000000000E+00     0.0000000000E+00     0.0000000000E+00
     0.0000000000E+00     0.0000000000E+00     0.0000000000E+00     0.0000000000E+00
     0.0000000000E+00     0.0000000000E+00     0.0000000000E+00     0.0000000000E+00
     0.0000000000E+00     0.0000000000E+00     0.0000000000E+00     0.0000000000E+00
     0.0000000000E+00     0.0000000000E+00     0.0000000000E+00     0.0000000000E+00
     0.0000000000E+00     0.0000000000E+00     0.0000000000E+00     0.0000000000E+00
     0.0000000000E+00     0.0000000000E+00     0.0000000000E+00     0.0000000000E+00
     0.0000000000E+00     0.0000000000E+00     0.0000000000E+00     0.0000000000E+00
     0.0000000000E+00     0.0000000000E+00     0.0000000000E+00     0.0000000000E+00
     0.0000000000E+00     0.0000000000E+00     0.0000000000E+00     0.0000000000E+00
     0.0000000000E+00     0.0000000000E+00     0.0000000000E+00     0.0000000000E+00
     0.0000000000E+00     0.0000000000E+00     0.0000000000E+00     0.0000000000E+00
     0.0000000000E+00     0.0000000000E+00     0.0000000000E+00     0.0000000000E+00
     0.0000000000E+00     0.0000000000E+00     0.0000000000E+00     0.0000000000E+00
     0.0000000000E+00     0.0000000000E+00     0.0000000000E+00     0.0000000000E+00
     0.0000000000E+00     0.0000000000E+00     0.0000000000E+00     0.0000000000E+00
     0.0000000000E+00     0.0000000000E+00     0.0000000000E+00     0.0000000000E+00
     0.0000000000E+00     0.0000000000E+00     0.0000000000E+00     0.0000000000E+00
     0.0000000000E+00     0.0000000000E+00     0.0000000000E+00     0.0000000000E+00
     0.0000000000E+00     0.0000000000E+00     0.0000000000E+00     0.0000000000E+00
     0.0000000000E+00     0.0000000000E+00     0.0000000000E+00     0.0000000000E+00
     0.0000000000E+00     0.0000000000E+00     0.0000000000E+00     0.0000000000E+00
     0.0000000000E+00     0.0000000000E+00     0.0000000000E+00     0.0000000000E+00
     0.0000000000E+00     0.0000000000E+00     0.0000000000E+00     0.0000000000E+00
     0.0000000000E+00     0.0000000000E+00     0.0000000000E+00     0.0000000000E+00
     0.0000000000E+00     0.0000000000E+00     0.0000000000E+00     0.0000000000E+00
     0.0000000000E+00     0.0000000000E+00     0.0000000000E+00     0.0000000000E+00
     0.0000000000E+00     0.0000000000E+00     0.0000000000E+00     0.0000000000E+00
     0.0000000000E+00     0.0000000000E+00     0.0000000000E+00     0.0000000000E+00
     0.0000000000E+00     0.0000000000E+00     0.0000000000E+00     0.0000000000E+00
     0.0000000000E+00     0.0000000000E+00     0.0000000000E+00     0.0000000000E+00
     0.0000000000E+00     0.0000000000E+00     0.0000000000E+00     0.0000000000E+00
     0.0000000000E+00     0.0000000000E+00     0.0000000000E+00     0.0000000000E+00
     0.0000000000E+00     0.0000000000E+00     0.0000000000E+00     0.0000000000E+00
     0.0000000000E+00     0.0000000000E+00     0.0000000000E+00     0.0000000000E+00
     0.0000000000E+00     0.0000000000E+00     0.0000000000E+00     0.0000000000E+00
     0.0000000000E+00     0.0000000000E+00     0.0000000000E+00     0.0000000000E+00
     0.0000000000E+00     0.0000000000E+00     0.0000000000E+00     0.0000000000E+00
     0.0000000000E+00     0.0000000000E+00     0.0000000000E+00     0.0000000000E+00
     0.0000000000E+00     0.0000000000E+00     0.0000000000E+00     0.0000000000E+00
     0.0000000000E+00     0.0000000000E+00     0.0000000000E+00     0.0000000000E+00
     0.0000000000E+00     0.0000000000E+00     0.0000000000E+00     0.0000000000E+00
     0.0000000000E+00     0.0000000000E+00     0.0000000000E+00     0.0000000000E+00
     0.0000000000E+00     0.0000000000E+00     0.0000000000E+00     0.0000000000E+00
     0.0000000000E+00     0.0000000000E+00     0.0000000000E+00     0.0000000000E+00
     0.0000000000E+00     0.0000000000E+00     0.0000000000E+00     0.0000000000E+00
     0.0000000000E+00     0.0000000000E+00     0.0000000000E+00     0.0000000000E+00
     0.0000000000E+00     0.0000000000E+00     0.0000000000E+00     0.0000000000E+00
     0.0000000000E+00     0.0000000000E+00     0.0000000000E+00     0.0000000000E+00
     0.0000000000E+00     0.0000000000E+00     0.0000000000E+00     0.0000000000E+00
     0.0000000000E+00     0.0000000000E+00     0.0000000000E+00     0.0000000000E+00
     0.0000000000E+00     0.0000000000E+00     0.0000000000E+00     0.0000000000E+00
     0.0000000000E+00     0.0000000000E+00     0.0000000000E+00     0.0000000000E+00
     0.0000000000E+00     0.0000000000E+00     0.0000000000E+00     0.0000000000E+00
     0.0000000000E+00     0.0000000000E+00     0.0000000000E+00     0.0000000000E+00
     0.0000000000E+00     0.0000000000E+00     0.0000000000E+00     0.0000000000E+00
     0.0000000000E+00     0.0000000000E+00     0.0000000000E+00     0.0000000000E+00
     0.0000000000E+00     0.0000000000E+00     0.0000000000E+00     0.0000000000E+00
     0.0000000000E+00     0.0000000000E+00     0.0000000000E+00     0.0000000000E+00
     0.0000000000E+00     0.0000000000E+00     0.0000000000E+00     0.0000000000E+00
     0.0000000000E+00     0.0000000000E+00     0.0000000000E+00     0.0000000000E+00
     0.0000000000E+00     0.0000000000E+00     0.0000000000E+00     0.0000000000E+00
     0.0000000000E+00     0.0000000000E+00     0.0000000000E+00     0.0000000000E+00
     0.0000000000E+00     0.0000000000E+00     0.0000000000E+00     0.0000000000E+00
     0.0000000000E+00     0.0000000000E+00     0.0000000000E+00     0.0000000000E+00
     0.0000000000E+00     0.0000000000E+00     0.0000000000E+00     0.0000000000E+00
     0.0000000000E+00     0.0000000000E+00     0.0000000000E+00     0.0000000000E+00
     0.0000000000E+00     0.0000000000E+00     0.0000000000E+00     0.0000000000E+00
     0.0000000000E+00     0.0000000000E+00     0.0000000000E+00     0.0000000000E+00
     0.0000000000E+00     0.0000000000E+00     0.0000000000E+00     0.0000000000E+00
     0.0000000000E+00     0.0000000000E+00     0.0000000000E+00     0.0000000000E+00
     0.0000000000E+00     0.0000000000E+00     0.0000000000E+00     0.0000000000E+00
     0.0000000000E+00     0.0000000000E+00     0.0000000000E+00     0.0000000000E+00
     0.0000000000E+00     0.0000000000E+00     0.0000000000E+00     0.0000000000E+00
     0.0000000000E+00     0.0000000000E+00     0.0000000000E+00     0.0000000000E+00
     0.0000000000E+00     0.0000000000E+00     0.0000000000E+00     0.0000000000E+00
     0.0000000000E+00     0.0000000000E+00     0.0000000000E+00     0.0000000000E+00
     0.0000000000E+00     0.0000000000E+00     0.0000000000E+00     0.0000000000E+00
     0.0000000000E+00     0.0000000000E+00     0.0000000000E+00     0.0000000000E+00
     0.0000000000E+00     0.0000000000E+00     0.0000000000E+00     0.0000000000E+00
     0.0000000000E+00     0.0000000000E+00     0.0000000000E+00     0.0000000000E+00
     0.0000000000E+00     0.0000000000E+00     0.0000000000E+00     0.0000000000E+00
     0.0000000000E+00     0.0000000000E+00     0.0000000000E+00     0.0000000000E+00
     0.0000000000E+00     0.0000000000E+00     0.0000000000E+00     0.0000000000E+00
     0.0000000000E+00     0.0000000000E+00     0.0000000000E+00     0.0000000000E+00
     0.0000000000E+00     0.0000000000E+00     0.0000000000E+00     0.0000000000E+00
     0.0000000000E+00     0.0000000000E+00     0.0000000000E+00     0.0000000000E+00
     0.0000000000E+00     0.0000000000E+00     0.0000000000E+00     0.0000000000E+00
     0.0000000000E+00     0.0000000000E+00     0.0000000000E+00     0.0000000000E+00
     0.0000000000E+00     0.0000000000E+00     0.0000000000E+00     0.0000000000E+00
     0.0000000000E+00     0.0000000000E+00     0.0000000000E+00     0.0000000000E+00
     0.0000000000E+00     0.0000000000E+00     0.0000000000E+00     0.0000000000E+00
     0.0000000000E+00     0.0000000000E+00     0.0000000000E+00     0.0000000000E+00
     0.0000000000E+00     0.0000000000E+00     0.0000000000E+00     0.0000000000E+00
     0.0000000000E+00     0.0000000000E+00     0.0000000000E+00     0.0000000000E+00
     0.0000000000E+00     0.0000000000E+00     0.0000000000E+00     0.0000000000E+00
     0.0000000000E+00     0.0000000000E+00     0.0000000000E+00     0.0000000000E+00
     0.0000000000E+00     0.0000000000E+00     0.0000000000E+00     0.0000000000E+00
     0.0000000000E+00     0.0000000000E+00     0.0000000000E+00     0.0000000000E+00
     0.0000000000E+00     0.0000000000E+00     0.0000000000E+00     0.0000000000E+00
     0.0000000000E+00     0.0000000000E+00     0.0000000000E+00     0.0000000000E+00
     0.0000000000E+00     0.0000000000E+00     0.0000000000E+00     0.0000000000E+00
     0.0000000000E+00     0.0000000000E+00     0.0000000000E+00     0.0000000000E+00
     0.0000000000E+00     0.0000000000E+00     0.0000000000E+00     0.0000000000E+00
     0.0000000000E+00     0.0000000000E+00     0.0000000000E+00     0.0000000000E+00
     0.0000000000E+00     0.0000000000E+00     0.0000000000E+00     0.0000000000E+00
     0.0000000000E+00     0.0000000000E+00     0.0000000000E+00     0.0000000000E+00
     0.0000000000E+00     0.0000000000E+00     0.0000000000E+00     0.0000000000E+00
     0.0000000000E+00     0.0000000000E+00     0.0000000000E+00     0.0000000000E+00
     0.0000000000E+00     0.0000000000E+00     0.0000000000E+00     0.0000000000E+00
     0.0000000000E+00
</PP_RHOATOM>
</UPF>