36
Coronene C24H12 finite graphene flake, reoriented into the y-z plane (normal=x=impact-parameter axis); +z beam grazes it. Units Angstrom.
C      0.000000     0.000000    -1.421000
C      0.000000     0.000000    -2.842000
C      0.000000     1.230622    -0.710500
C      0.000000     2.461244    -1.421000
C      0.000000     1.230622     0.710500
C      0.000000     2.461244     1.421000
C      0.000000     0.000000     1.421000
C      0.000000     0.000000     2.842000
C      0.000000    -1.230622     0.710500
C      0.000000    -2.461244     1.421000
C      0.000000    -1.230622    -0.710500
C      0.000000    -2.461244    -1.421000
C      0.000000     1.230622    -3.552500
C      0.000000     2.461244    -2.842000
C      0.000000     3.691866    -0.710500
C      0.000000     3.691866     0.710500
C      0.000000     2.461244     2.842000
C      0.000000     1.230622     3.552500
C      0.000000    -1.230622     3.552500
C      0.000000    -2.461244     2.842000
C      0.000000    -3.691866     0.710500
C      0.000000    -3.691866    -0.710500
C      0.000000    -2.461244    -2.842000
C      0.000000    -1.230622    -3.552500
H      0.000000     1.586099    -4.578674
H      0.000000     3.172198    -3.662939
H      0.000000     4.758297    -0.915735
H      0.000000     4.758297     0.915735
H      0.000000     3.172198     3.662939
H      0.000000     1.586099     4.578674
H      0.000000    -1.586099     4.578674
H      0.000000    -3.172198     3.662939
H      0.000000    -4.758297     0.915735
H      0.000000    -4.758297    -0.915735
H      0.000000    -3.172198    -3.662939
H      0.000000    -1.586099    -4.578674
