48
AB (Bernal) bilayer graphene 3x2 rect supercell: Lx=7.3800 Ly=8.5217 Ang periodic; a=2.46 Ang; d=3.35 Ang; 48 C; layers z=-/+1.675; layer2=+b_y shift, y WRAPPED into cell
C   -3.690000   3.550704  -1.675000
C   -2.460000   4.260845  -1.675000
C   -2.460000  -2.840563  -1.675000
C   -3.690000  -2.130422  -1.675000
C   -3.690000  -0.710141  -1.675000
C   -2.460000   0.000000  -1.675000
C   -2.460000   1.420282  -1.675000
C   -3.690000   2.130422  -1.675000
C   -1.230000   3.550704  -1.675000
C    0.000000   4.260845  -1.675000
C    0.000000  -2.840563  -1.675000
C   -1.230000  -2.130422  -1.675000
C   -1.230000  -0.710141  -1.675000
C    0.000000   0.000000  -1.675000
C    0.000000   1.420282  -1.675000
C   -1.230000   2.130422  -1.675000
C    1.230000   3.550704  -1.675000
C    2.460000   4.260845  -1.675000
C    2.460000  -2.840563  -1.675000
C    1.230000  -2.130422  -1.675000
C    1.230000  -0.710141  -1.675000
C    2.460000   0.000000  -1.675000
C    2.460000   1.420282  -1.675000
C    1.230000   2.130422  -1.675000
C   -3.690000  -3.550704   1.675000
C   -2.460000  -2.840563   1.675000
C   -2.460000  -1.420281   1.675000
C   -3.690000  -0.710140   1.675000
C   -3.690000   0.710141   1.675000
C   -2.460000   1.420282   1.675000
C   -2.460000   2.840564   1.675000
C   -3.690000   3.550704   1.675000
C   -1.230000  -3.550704   1.675000
C    0.000000  -2.840563   1.675000
C    0.000000  -1.420281   1.675000
C   -1.230000  -0.710140   1.675000
C   -1.230000   0.710141   1.675000
C    0.000000   1.420282   1.675000
C    0.000000   2.840564   1.675000
C   -1.230000   3.550704   1.675000
C    1.230000  -3.550704   1.675000
C    2.460000  -2.840563   1.675000
C    2.460000  -1.420281   1.675000
C    1.230000  -0.710140   1.675000
C    1.230000   0.710141   1.675000
C    2.460000   1.420282   1.675000
C    2.460000   2.840564   1.675000
C    1.230000   3.550704   1.675000
