24
graphene 4x2 rect supercell: Lx=7.3800 Ly=8.5217 Lz=31.7506 Ang; a=2.46 Ang; 32 C; sheet at z=0; atom at (0,0)
C  -3.690000   3.550704   0.000000
C  -2.460000   4.260845   0.000000
C  -2.460000  -2.840563   0.000000
C  -3.690000  -2.130422   0.000000
C  -3.690000  -0.710141   0.000000
C  -2.460000   0.000000   0.000000
C  -2.460000   1.420282   0.000000
C  -3.690000   2.130422   0.000000
C  -1.230000   3.550704   0.000000
C   0.000000   4.260845   0.000000
C   0.000000  -2.840563   0.000000
C  -1.230000  -2.130422   0.000000
C  -1.230000  -0.710141   0.000000
C   0.000000   0.000000   0.000000
C   0.000000   1.420282   0.000000
C  -1.230000   2.130422   0.000000
C   1.230000   3.550704   0.000000
C   2.460000   4.260845   0.000000
C   2.460000  -2.840563   0.000000
C   1.230000  -2.130422   0.000000
C   1.230000  -0.710141   0.000000
C   2.460000   0.000000   0.000000
C   2.460000   1.420282   0.000000
C   1.230000   2.130422   0.000000
