12
Benzene C6H6 D6h, centred at (9.2408,9.2408,15.8496) Ang  [Lx=Ly=18.48, Lz=31.7 Ang]
C     10.6378      9.2408     15.8496
C      9.9393     10.4506     15.8496
C      8.5423     10.4506     15.8496
C      7.8438      9.2408     15.8496
C      8.5423      8.0310     15.8496
C      9.9393      8.0310     15.8496
H     11.7236      9.2408     15.8496
H     10.4822     11.3908     15.8496
H      7.9994     11.3908     15.8496
H      6.7580      9.2408     15.8496
H      7.9994      7.0908     15.8496
H     10.4822      7.0908     15.8496
