54
BCC Li 3x3x3 supercell, a=3.51 Ang, L=10.5300 Ang
Li    0.000000    0.000000    0.000000
Li    1.755000    1.755000    1.755000
Li    0.000000    0.000000    3.510000
Li    1.755000    1.755000    5.265000
Li    0.000000    0.000000    7.020000
Li    1.755000    1.755000    8.775000
Li    0.000000    3.510000    0.000000
Li    1.755000    5.265000    1.755000
Li    0.000000    3.510000    3.510000
Li    1.755000    5.265000    5.265000
Li    0.000000    3.510000    7.020000
Li    1.755000    5.265000    8.775000
Li    0.000000    7.020000    0.000000
Li    1.755000    8.775000    1.755000
Li    0.000000    7.020000    3.510000
Li    1.755000    8.775000    5.265000
Li    0.000000    7.020000    7.020000
Li    1.755000    8.775000    8.775000
Li    3.510000    0.000000    0.000000
Li    5.265000    1.755000    1.755000
Li    3.510000    0.000000    3.510000
Li    5.265000    1.755000    5.265000
Li    3.510000    0.000000    7.020000
Li    5.265000    1.755000    8.775000
Li    3.510000    3.510000    0.000000
Li    5.265000    5.265000    1.755000
Li    3.510000    3.510000    3.510000
Li    5.265000    5.265000    5.265000
Li    3.510000    3.510000    7.020000
Li    5.265000    5.265000    8.775000
Li    3.510000    7.020000    0.000000
Li    5.265000    8.775000    1.755000
Li    3.510000    7.020000    3.510000
Li    5.265000    8.775000    5.265000
Li    3.510000    7.020000    7.020000
Li    5.265000    8.775000    8.775000
Li    7.020000    0.000000    0.000000
Li    8.775000    1.755000    1.755000
Li    7.020000    0.000000    3.510000
Li    8.775000    1.755000    5.265000
Li    7.020000    0.000000    7.020000
Li    8.775000    1.755000    8.775000
Li    7.020000    3.510000    0.000000
Li    8.775000    5.265000    1.755000
Li    7.020000    3.510000    3.510000
Li    8.775000    5.265000    5.265000
Li    7.020000    3.510000    7.020000
Li    8.775000    5.265000    8.775000
Li    7.020000    7.020000    0.000000
Li    8.775000    8.775000    1.755000
Li    7.020000    7.020000    3.510000
Li    8.775000    8.775000    5.265000
Li    7.020000    7.020000    7.020000
Li    8.775000    8.775000    8.775000
