16
Li BCC 2x2x2 supercell, a=3.51 Ang, L=7.02 Ang. Origin at (0,0,0) box corner.
Li   0.000   0.000   0.000
Li   3.510   0.000   0.000
Li   0.000   3.510   0.000
Li   3.510   3.510   0.000
Li   0.000   0.000   3.510
Li   3.510   0.000   3.510
Li   0.000   3.510   3.510
Li   3.510   3.510   3.510
Li   1.755   1.755   1.755
Li   5.265   1.755   1.755
Li   1.755   5.265   1.755
Li   5.265   5.265   1.755
Li   1.755   1.755   5.265
Li   5.265   1.755   5.265
Li   1.755   5.265   5.265
Li   5.265   5.265   5.265
