36
Coronene C24H12 D6h, centred at new cell centre (9.2408,9.2408,15.8496) Ang  [Lx=Ly=18.48, Lz=31.7 Ang]
C     10.661840      9.240840     15.849600
C     12.082840      9.240840     15.849600
C      9.951340     10.471462     15.849600
C     10.661840     11.702084     15.849600
C      8.530340     10.471462     15.849600
C      7.819840     11.702084     15.849600
C      7.819840      9.240840     15.849600
C      6.398840      9.240840     15.849600
C      8.530340      8.010218     15.849600
C      7.819840      6.779596     15.849600
C      9.951340      8.010218     15.849600
C     10.661840      6.779596     15.849600
C     12.793340     10.471462     15.849600
C     12.082840     11.702084     15.849600
C      9.951340     12.932706     15.849600
C      8.530340     12.932706     15.849600
C      6.398840     11.702084     15.849600
C      5.688340     10.471462     15.849600
C      5.688340      8.010218     15.849600
C      6.398840      6.779596     15.849600
C      8.530340      5.548974     15.849600
C      9.951340      5.548974     15.849600
C     12.082840      6.779596     15.849600
C     12.793340      8.010218     15.849600
H     13.819514     10.826939     15.849600
H     12.903779     12.413038     15.849600
H     10.156575     13.999137     15.849600
H      8.325105     13.999137     15.849600
H      5.577901     12.413038     15.849600
H      4.662166     10.826939     15.849600
H      4.662166      7.654741     15.849600
H      5.577901      6.068642     15.849600
H      8.325105      4.482543     15.849600
H     10.156575      4.482543     15.849600
H     12.903779      6.068642     15.849600
H     13.819514      7.654741     15.849600
