36
Coronene C24H12 D6h, centred at cell centre (9.200,9.200,15.850) Ang
C     10.621000      9.200000     15.850000
C     12.042000      9.200000     15.850000
C      9.910500     10.430622     15.850000
C     10.621000     11.661244     15.850000
C      8.489500     10.430622     15.850000
C      7.779000     11.661244     15.850000
C      7.779000      9.200000     15.850000
C      6.358000      9.200000     15.850000
C      8.489500      7.969378     15.850000
C      7.779000      6.738756     15.850000
C      9.910500      7.969378     15.850000
C     10.621000      6.738756     15.850000
C     12.752500     10.430622     15.850000
C     12.042000     11.661244     15.850000
C      9.910500     12.891866     15.850000
C      8.489500     12.891866     15.850000
C      6.358000     11.661244     15.850000
C      5.647500     10.430622     15.850000
C      5.647500      7.969378     15.850000
C      6.358000      6.738756     15.850000
C      8.489500      5.508134     15.850000
C      9.910500      5.508134     15.850000
C     12.042000      6.738756     15.850000
C     12.752500      7.969378     15.850000
H     13.778674     10.786099     15.850000
H     12.862939     12.372198     15.850000
H     10.115735     13.958297     15.850000
H      8.284265     13.958297     15.850000
H      5.537061     12.372198     15.850000
H      4.621326     10.786099     15.850000
H      4.621326      7.613901     15.850000
H      5.537061      6.027802     15.850000
H      8.284265      4.441703     15.850000
H     10.115735      4.441703     15.850000
H     12.862939      6.027802     15.850000
H     13.778674      7.613901     15.850000
