36
Coronene C24H12, D6h symmetry, C-C=1.421 Ang, C-H=1.086 Ang
C      1.421000      0.000000      0.000000
C      2.842000      0.000000      0.000000
C      0.710500      1.230622      0.000000
C      1.421000      2.461244      0.000000
C     -0.710500      1.230622      0.000000
C     -1.421000      2.461244      0.000000
C     -1.421000      0.000000      0.000000
C     -2.842000      0.000000      0.000000
C     -0.710500     -1.230622      0.000000
C     -1.421000     -2.461244      0.000000
C      0.710500     -1.230622      0.000000
C      1.421000     -2.461244      0.000000
C      3.552500      1.230622      0.000000
C      2.842000      2.461244      0.000000
C      0.710500      3.691866      0.000000
C     -0.710500      3.691866      0.000000
C     -2.842000      2.461244      0.000000
C     -3.552500      1.230622      0.000000
C     -3.552500     -1.230622      0.000000
C     -2.842000     -2.461244      0.000000
C     -0.710500     -3.691866      0.000000
C      0.710500     -3.691866      0.000000
C      2.842000     -2.461244      0.000000
C      3.552500     -1.230622      0.000000
H      4.578674      1.586099      0.000000
H      3.662939      3.172198      0.000000
H      0.915735      4.758297      0.000000
H     -0.915735      4.758297      0.000000
H     -3.662939      3.172198      0.000000
H     -4.578674      1.586099      0.000000
H     -4.578674     -1.586099      0.000000
H     -3.662939     -3.172198      0.000000
H     -0.915735     -4.758297      0.000000
H      0.915735     -4.758297      0.000000
H      3.662939     -3.172198      0.000000
H      4.578674     -1.586099      0.000000
