10
Coronene top-left quarter (7C+3H), x<=9.2408 AND y>=9.2408 Ang  [same cell as run_07]
C      8.530340     10.471462     15.849600
C      7.819840     11.702084     15.849600
C      7.819840      9.240840     15.849600
C      6.398840      9.240840     15.849600
C      8.530340     12.932706     15.849600
C      6.398840     11.702084     15.849600
C      5.688340     10.471462     15.849600
H      8.325105     13.999137     15.849600
H      5.577901     12.413038     15.849600
H      4.662166     10.826939     15.849600
