<UPF version="2.0.1">
  <PP_INFO>

 ELECTRON PSEUDOPOTENTIAL — derived from anti-proton-ONCV-1.2.upf
 Modification 2026-05-07: this is an "electron" pseudopotential —
 same -1 Coulomb tail as anti-proton-ONCV-1.2.upf (both are bare point
 charges of charge -1), but the projectile mass is set to the electron
 mass (5.4857991e-4 amu => 1.0000 atomic units = m_e) at runtime in
 the calling C++ code via inq::ionic::species(sym).mass(amu). The UPF
 format carries no mass attribute, so this rename + comment is for
 human verification only; the actual physics change is host-side.

 Below is the original antiproton header preserved verbatim:
=================================================================
 ANTIPROTON PSEUDOPOTENTIAL — derived from H_ONCV_PBE-1.2.upf
 Modifications applied 2026-05-07:

   1. Changed the PP_HEADER edits:
        z_valence       1.00 -> 0.00
                        (no electrons contributed to KS system)
        number_of_proj  2 -> 0
        is_coulomb      F -> T
                        (declares this as a bare local Coulomb PP)

   2. PP_NONLOCAL block PRESENT BUT EMPTY (with empty PP_DIJ child)
        (no bound electrons to scatter, no KB projectors needed)
        UPDATE 2026-05-08: pseudopod's UPF2 parser
        (inq/external_libs/pseudopod/formats/upf2.hpp:159) null-derefs
        if PP_NONLOCAL is missing, even when number_of_proj=0. So the
        block exists but is empty. The DIJ stub has size=0; the parser
        loop iterates zero times because nprojectors()==0.

   3. This is the main change. PP_LOCAL extended from r = 6.01 -> 50.00 Bohr
        Extension uses the bare -2/r form (Rydberg, e^2 = 2, conversion from Bohr)
        Necessary because the unscreened Coulomb tail is
        long-ranged: at r = 6 Bohr, V = -0.33 Ry, not zero. 
        Essentially, even though the original PP_LOCAL provided unscreened potential, 
        we are changing this because, there is no electron in the system, with this
        ion to screen the charge. Hence, we've extended the range of the grid it is 
        simulated in. This way, we are truly representing the 1/r decay of the coulombic potential

   4. PP_LOCAL sign FLIPPED: V_loc -> -V_loc
        Proton (-1/r, attractive) -> Antiproton (+1/r, repulsive)
        Verified: V_loc * r -> +2.000 Ry at large r

   5. PP_RHOATOM extended with zeros beyond original mesh
        (no valence charge to initialise SCF density with)

   6. PP_R, PP_RAB, mesh_size, rho_cutoff updated for new mesh
        New mesh: 5001 uniform points, dr = 0.01, r_max = 50.0

 Use case: bare antiproton projectile in INQ rt-TDDFT simulations.
 The projectile mass should be set in the INQ input file; this
 UPF carries no mass attribute (mass is host-code-side).
=================================================================

 H_ONCV_PBE-1.2.upf

 This pseudopotential file has been produced using the code
 ONCVPSP  (Optimized Norm-Conservinng Vanderbilt PSeudopotential)
 scalar-relativistic version 2.1.1, 03/26/2014 by D. R. Hamann
 The code is available through a link at URL www.mat-simresearch.com.
 Documentation with the package provides a full discription of the
 input data below.


 While it is not required under the terms of the GNU GPL, it is
 suggested that you cite D. R. Hamann, Phys. Rev. B 88, 085117 (2013)
 in any publication using these pseudopotentials.


 Copyright 2015 The Regents of the University of California
 
 This work is licensed under the Creative Commons Attribution-ShareAlike 
 4.0 International License. To view a copy of this license, visit 
 http://creativecommons.org/licenses/by-sa/4.0/ or send a letter to 
 Creative Commons, PO Box 1866, Mountain View, CA 94042, USA.
 
 This pseudopotential is part of the Schlipf-Gygi norm-conserving 
 pseudopotential library. Its construction parameters were tuned to 
 reproduce materials of a training set with very high accuracy and 
 should be suitable as a general purpose pseudopotential to treat a 
 variety of different compounds. For details of the construction and 
 testing of the pseudopotential please refer to:
 
   M. Schlipf and F. Gygi, Computer Physics Communications (2015)
   DOI: 10.1016/j.cpc.2015.05.011
   http://dx.doi.org/10.1016/j.cpc.2015.05.011
   http://www.quantum-simulation.org
 
 We kindly ask that you include this reference in all publications 
 associated to this pseudopotential.


    <PP_INPUTFILE>
# ATOM AND REFERENCE CONFIGURATION
# atsym  z    nc    nv    iexc   psfile
  H  1.00     0     1     4      upf
#
#   n    l    f        energy (Ha)
    1    0    1.00
#
# PSEUDOPOTENTIAL AND OPTIMIZATION
# lmax
    0
#
#   l,   rc,     ep,   ncon, nbas, qcut
    0   1.13748  -0.23860    5    8   9.72141
#
# LOCAL POTENTIAL
# lloc, lpopt,  rc(5),   dvloc0
    4    5   0.49352      0.00000
#
# VANDERBILT-KLEINMAN-BYLANDER PROJECTORs
# l, nproj, debl
    0    2   1.27464
#
# MODEL CORE CHARGE
# icmod, fcfact
    0   0.00000
#
# LOG DERIVATIVE ANALYSIS
# epsh1, epsh2, depsh
   -5.00    3.00    0.02
#
# OUTPUT GRID
# rlmax, drl
    6.00    0.01
#
# TEST CONFIGURATIONS
# ncnf
    0
# nvcnf
#   n    l    f
    </PP_INPUTFILE>
  </PP_INFO>
  <!--                               -->
  <!-- END OF HUMAN READABLE SECTION -->
  <!--                               -->
    <PP_HEADER
       generated="Generated using ONCVPSP code by D. R. Hamann"
       author="Martin Schlipf and Francois Gygi"
       date="150105"
       comment=""
       element="H "
       pseudo_type="NC"
       relativistic="scalar"
       is_ultrasoft="F"
       is_paw="F"
       is_coulomb="T"
       has_so="F"
       has_wfc="F"
       has_gipaw="F"
       core_correction="F"
       functional="PBE"
       z_valence="    0.00"
       total_psenergy="  -4.58772875004E-01"
       rho_cutoff="   5.0000000000E+01"
       l_max="0"
       l_local="-1"
       mesh_size="  5001"
       number_of_wfc="0"
       number_of_proj="0"/>
 <PP_MESH>
   <PP_R type="real"  size="5001" columns="8">
    0.0000    0.0100    0.0200    0.0300    0.0400    0.0500    0.0600    0.0700
    0.0800    0.0900    0.1000    0.1100    0.1200    0.1300    0.1400    0.1500
    0.1600    0.1700    0.1800    0.1900    0.2000    0.2100    0.2200    0.2300
    0.2400    0.2500    0.2600    0.2700    0.2800    0.2900    0.3000    0.3100
    0.3200    0.3300    0.3400    0.3500    0.3600    0.3700    0.3800    0.3900
    0.4000    0.4100    0.4200    0.4300    0.4400    0.4500    0.4600    0.4700
    0.4800    0.4900    0.5000    0.5100    0.5200    0.5300    0.5400    0.5500
    0.5600    0.5700    0.5800    0.5900    0.6000    0.6100    0.6200    0.6300
    0.6400    0.6500    0.6600    0.6700    0.6800    0.6900    0.7000    0.7100
    0.7200    0.7300    0.7400    0.7500    0.7600    0.7700    0.7800    0.7900
    0.8000    0.8100    0.8200    0.8300    0.8400    0.8500    0.8600    0.8700
    0.8800    0.8900    0.9000    0.9100    0.9200    0.9300    0.9400    0.9500
    0.9600    0.9700    0.9800    0.9900    1.0000    1.0100    1.0200    1.0300
    1.0400    1.0500    1.0600    1.0700    1.0800    1.0900    1.1000    1.1100
    1.1200    1.1300    1.1400    1.1500    1.1600    1.1700    1.1800    1.1900
    1.2000    1.2100    1.2200    1.2300    1.2400    1.2500    1.2600    1.2700
    1.2800    1.2900    1.3000    1.3100    1.3200    1.3300    1.3400    1.3500
    1.3600    1.3700    1.3800    1.3900    1.4000    1.4100    1.4200    1.4300
    1.4400    1.4500    1.4600    1.4700    1.4800    1.4900    1.5000    1.5100
    1.5200    1.5300    1.5400    1.5500    1.5600    1.5700    1.5800    1.5900
    1.6000    1.6100    1.6200    1.6300    1.6400    1.6500    1.6600    1.6700
    1.6800    1.6900    1.7000    1.7100    1.7200    1.7300    1.7400    1.7500
    1.7600    1.7700    1.7800    1.7900    1.8000    1.8100    1.8200    1.8300
    1.8400    1.8500    1.8600    1.8700    1.8800    1.8900    1.9000    1.9100
    1.9200    1.9300    1.9400    1.9500    1.9600    1.9700    1.9800    1.9900
    2.0000    2.0100    2.0200    2.0300    2.0400    2.0500    2.0600    2.0700
    2.0800    2.0900    2.1000    2.1100    2.1200    2.1300    2.1400    2.1500
    2.1600    2.1700    2.1800    2.1900    2.2000    2.2100    2.2200    2.2300
    2.2400    2.2500    2.2600    2.2700    2.2800    2.2900    2.3000    2.3100
    2.3200    2.3300    2.3400    2.3500    2.3600    2.3700    2.3800    2.3900
    2.4000    2.4100    2.4200    2.4300    2.4400    2.4500    2.4600    2.4700
    2.4800    2.4900    2.5000    2.5100    2.5200    2.5300    2.5400    2.5500
    2.5600    2.5700    2.5800    2.5900    2.6000    2.6100    2.6200    2.6300
    2.6400    2.6500    2.6600    2.6700    2.6800    2.6900    2.7000    2.7100
    2.7200    2.7300    2.7400    2.7500    2.7600    2.7700    2.7800    2.7900
    2.8000    2.8100    2.8200    2.8300    2.8400    2.8500    2.8600    2.8700
    2.8800    2.8900    2.9000    2.9100    2.9200    2.9300    2.9400    2.9500
    2.9600    2.9700    2.9800    2.9900    3.0000    3.0100    3.0200    3.0300
    3.0400    3.0500    3.0600    3.0700    3.0800    3.0900    3.1000    3.1100
    3.1200    3.1300    3.1400    3.1500    3.1600    3.1700    3.1800    3.1900
    3.2000    3.2100    3.2200    3.2300    3.2400    3.2500    3.2600    3.2700
    3.2800    3.2900    3.3000    3.3100    3.3200    3.3300    3.3400    3.3500
    3.3600    3.3700    3.3800    3.3900    3.4000    3.4100    3.4200    3.4300
    3.4400    3.4500    3.4600    3.4700    3.4800    3.4900    3.5000    3.5100
    3.5200    3.5300    3.5400    3.5500    3.5600    3.5700    3.5800    3.5900
    3.6000    3.6100    3.6200    3.6300    3.6400    3.6500    3.6600    3.6700
    3.6800    3.6900    3.7000    3.7100    3.7200    3.7300    3.7400    3.7500
    3.7600    3.7700    3.7800    3.7900    3.8000    3.8100    3.8200    3.8300
    3.8400    3.8500    3.8600    3.8700    3.8800    3.8900    3.9000    3.9100
    3.9200    3.9300    3.9400    3.9500    3.9600    3.9700    3.9800    3.9900
    4.0000    4.0100    4.0200    4.0300    4.0400    4.0500    4.0600    4.0700
    4.0800    4.0900    4.1000    4.1100    4.1200    4.1300    4.1400    4.1500
    4.1600    4.1700    4.1800    4.1900    4.2000    4.2100    4.2200    4.2300
    4.2400    4.2500    4.2600    4.2700    4.2800    4.2900    4.3000    4.3100
    4.3200    4.3300    4.3400    4.3500    4.3600    4.3700    4.3800    4.3900
    4.4000    4.4100    4.4200    4.4300    4.4400    4.4500    4.4600    4.4700
    4.4800    4.4900    4.5000    4.5100    4.5200    4.5300    4.5400    4.5500
    4.5600    4.5700    4.5800    4.5900    4.6000    4.6100    4.6200    4.6300
    4.6400    4.6500    4.6600    4.6700    4.6800    4.6900    4.7000    4.7100
    4.7200    4.7300    4.7400    4.7500    4.7600    4.7700    4.7800    4.7900
    4.8000    4.8100    4.8200    4.8300    4.8400    4.8500    4.8600    4.8700
    4.8800    4.8900    4.9000    4.9100    4.9200    4.9300    4.9400    4.9500
    4.9600    4.9700    4.9800    4.9900    5.0000    5.0100    5.0200    5.0300
    5.0400    5.0500    5.0600    5.0700    5.0800    5.0900    5.1000    5.1100
    5.1200    5.1300    5.1400    5.1500    5.1600    5.1700    5.1800    5.1900
    5.2000    5.2100    5.2200    5.2300    5.2400    5.2500    5.2600    5.2700
    5.2800    5.2900    5.3000    5.3100    5.3200    5.3300    5.3400    5.3500
    5.3600    5.3700    5.3800    5.3900    5.4000    5.4100    5.4200    5.4300
    5.4400    5.4500    5.4600    5.4700    5.4800    5.4900    5.5000    5.5100
    5.5200    5.5300    5.5400    5.5500    5.5600    5.5700    5.5800    5.5900
    5.6000    5.6100    5.6200    5.6300    5.6400    5.6500    5.6600    5.6700
    5.6800    5.6900    5.7000    5.7100    5.7200    5.7300    5.7400    5.7500
    5.7600    5.7700    5.7800    5.7900    5.8000    5.8100    5.8200    5.8300
    5.8400    5.8500    5.8600    5.8700    5.8800    5.8900    5.9000    5.9100
    5.9200    5.9300    5.9400    5.9500    5.9600    5.9700    5.9800    5.9900
    6.0000    6.0100    6.0200    6.0300    6.0400    6.0500    6.0600    6.0700
    6.0800    6.0900    6.1000    6.1100    6.1200    6.1300    6.1400    6.1500
    6.1600    6.1700    6.1800    6.1900    6.2000    6.2100    6.2200    6.2300
    6.2400    6.2500    6.2600    6.2700    6.2800    6.2900    6.3000    6.3100
    6.3200    6.3300    6.3400    6.3500    6.3600    6.3700    6.3800    6.3900
    6.4000    6.4100    6.4200    6.4300    6.4400    6.4500    6.4600    6.4700
    6.4800    6.4900    6.5000    6.5100    6.5200    6.5300    6.5400    6.5500
    6.5600    6.5700    6.5800    6.5900    6.6000    6.6100    6.6200    6.6300
    6.6400    6.6500    6.6600    6.6700    6.6800    6.6900    6.7000    6.7100
    6.7200    6.7300    6.7400    6.7500    6.7600    6.7700    6.7800    6.7900
    6.8000    6.8100    6.8200    6.8300    6.8400    6.8500    6.8600    6.8700
    6.8800    6.8900    6.9000    6.9100    6.9200    6.9300    6.9400    6.9500
    6.9600    6.9700    6.9800    6.9900    7.0000    7.0100    7.0200    7.0300
    7.0400    7.0500    7.0600    7.0700    7.0800    7.0900    7.1000    7.1100
    7.1200    7.1300    7.1400    7.1500    7.1600    7.1700    7.1800    7.1900
    7.2000    7.2100    7.2200    7.2300    7.2400    7.2500    7.2600    7.2700
    7.2800    7.2900    7.3000    7.3100    7.3200    7.3300    7.3400    7.3500
    7.3600    7.3700    7.3800    7.3900    7.4000    7.4100    7.4200    7.4300
    7.4400    7.4500    7.4600    7.4700    7.4800    7.4900    7.5000    7.5100
    7.5200    7.5300    7.5400    7.5500    7.5600    7.5700    7.5800    7.5900
    7.6000    7.6100    7.6200    7.6300    7.6400    7.6500    7.6600    7.6700
    7.6800    7.6900    7.7000    7.7100    7.7200    7.7300    7.7400    7.7500
    7.7600    7.7700    7.7800    7.7900    7.8000    7.8100    7.8200    7.8300
    7.8400    7.8500    7.8600    7.8700    7.8800    7.8900    7.9000    7.9100
    7.9200    7.9300    7.9400    7.9500    7.9600    7.9700    7.9800    7.9900
    8.0000    8.0100    8.0200    8.0300    8.0400    8.0500    8.0600    8.0700
    8.0800    8.0900    8.1000    8.1100    8.1200    8.1300    8.1400    8.1500
    8.1600    8.1700    8.1800    8.1900    8.2000    8.2100    8.2200    8.2300
    8.2400    8.2500    8.2600    8.2700    8.2800    8.2900    8.3000    8.3100
    8.3200    8.3300    8.3400    8.3500    8.3600    8.3700    8.3800    8.3900
    8.4000    8.4100    8.4200    8.4300    8.4400    8.4500    8.4600    8.4700
    8.4800    8.4900    8.5000    8.5100    8.5200    8.5300    8.5400    8.5500
    8.5600    8.5700    8.5800    8.5900    8.6000    8.6100    8.6200    8.6300
    8.6400    8.6500    8.6600    8.6700    8.6800    8.6900    8.7000    8.7100
    8.7200    8.7300    8.7400    8.7500    8.7600    8.7700    8.7800    8.7900
    8.8000    8.8100    8.8200    8.8300    8.8400    8.8500    8.8600    8.8700
    8.8800    8.8900    8.9000    8.9100    8.9200    8.9300    8.9400    8.9500
    8.9600    8.9700    8.9800    8.9900    9.0000    9.0100    9.0200    9.0300
    9.0400    9.0500    9.0600    9.0700    9.0800    9.0900    9.1000    9.1100
    9.1200    9.1300    9.1400    9.1500    9.1600    9.1700    9.1800    9.1900
    9.2000    9.2100    9.2200    9.2300    9.2400    9.2500    9.2600    9.2700
    9.2800    9.2900    9.3000    9.3100    9.3200    9.3300    9.3400    9.3500
    9.3600    9.3700    9.3800    9.3900    9.4000    9.4100    9.4200    9.4300
    9.4400    9.4500    9.4600    9.4700    9.4800    9.4900    9.5000    9.5100
    9.5200    9.5300    9.5400    9.5500    9.5600    9.5700    9.5800    9.5900
    9.6000    9.6100    9.6200    9.6300    9.6400    9.6500    9.6600    9.6700
    9.6800    9.6900    9.7000    9.7100    9.7200    9.7300    9.7400    9.7500
    9.7600    9.7700    9.7800    9.7900    9.8000    9.8100    9.8200    9.8300
    9.8400    9.8500    9.8600    9.8700    9.8800    9.8900    9.9000    9.9100
    9.9200    9.9300    9.9400    9.9500    9.9600    9.9700    9.9800    9.9900
   10.0000   10.0100   10.0200   10.0300   10.0400   10.0500   10.0600   10.0700
   10.0800   10.0900   10.1000   10.1100   10.1200   10.1300   10.1400   10.1500
   10.1600   10.1700   10.1800   10.1900   10.2000   10.2100   10.2200   10.2300
   10.2400   10.2500   10.2600   10.2700   10.2800   10.2900   10.3000   10.3100
   10.3200   10.3300   10.3400   10.3500   10.3600   10.3700   10.3800   10.3900
   10.4000   10.4100   10.4200   10.4300   10.4400   10.4500   10.4600   10.4700
   10.4800   10.4900   10.5000   10.5100   10.5200   10.5300   10.5400   10.5500
   10.5600   10.5700   10.5800   10.5900   10.6000   10.6100   10.6200   10.6300
   10.6400   10.6500   10.6600   10.6700   10.6800   10.6900   10.7000   10.7100
   10.7200   10.7300   10.7400   10.7500   10.7600   10.7700   10.7800   10.7900
   10.8000   10.8100   10.8200   10.8300   10.8400   10.8500   10.8600   10.8700
   10.8800   10.8900   10.9000   10.9100   10.9200   10.9300   10.9400   10.9500
   10.9600   10.9700   10.9800   10.9900   11.0000   11.0100   11.0200   11.0300
   11.0400   11.0500   11.0600   11.0700   11.0800   11.0900   11.1000   11.1100
   11.1200   11.1300   11.1400   11.1500   11.1600   11.1700   11.1800   11.1900
   11.2000   11.2100   11.2200   11.2300   11.2400   11.2500   11.2600   11.2700
   11.2800   11.2900   11.3000   11.3100   11.3200   11.3300   11.3400   11.3500
   11.3600   11.3700   11.3800   11.3900   11.4000   11.4100   11.4200   11.4300
   11.4400   11.4500   11.4600   11.4700   11.4800   11.4900   11.5000   11.5100
   11.5200   11.5300   11.5400   11.5500   11.5600   11.5700   11.5800   11.5900
   11.6000   11.6100   11.6200   11.6300   11.6400   11.6500   11.6600   11.6700
   11.6800   11.6900   11.7000   11.7100   11.7200   11.7300   11.7400   11.7500
   11.7600   11.7700   11.7800   11.7900   11.8000   11.8100   11.8200   11.8300
   11.8400   11.8500   11.8600   11.8700   11.8800   11.8900   11.9000   11.9100
   11.9200   11.9300   11.9400   11.9500   11.9600   11.9700   11.9800   11.9900
   12.0000   12.0100   12.0200   12.0300   12.0400   12.0500   12.0600   12.0700
   12.0800   12.0900   12.1000   12.1100   12.1200   12.1300   12.1400   12.1500
   12.1600   12.1700   12.1800   12.1900   12.2000   12.2100   12.2200   12.2300
   12.2400   12.2500   12.2600   12.2700   12.2800   12.2900   12.3000   12.3100
   12.3200   12.3300   12.3400   12.3500   12.3600   12.3700   12.3800   12.3900
   12.4000   12.4100   12.4200   12.4300   12.4400   12.4500   12.4600   12.4700
   12.4800   12.4900   12.5000   12.5100   12.5200   12.5300   12.5400   12.5500
   12.5600   12.5700   12.5800   12.5900   12.6000   12.6100   12.6200   12.6300
   12.6400   12.6500   12.6600   12.6700   12.6800   12.6900   12.7000   12.7100
   12.7200   12.7300   12.7400   12.7500   12.7600   12.7700   12.7800   12.7900
   12.8000   12.8100   12.8200   12.8300   12.8400   12.8500   12.8600   12.8700
   12.8800   12.8900   12.9000   12.9100   12.9200   12.9300   12.9400   12.9500
   12.9600   12.9700   12.9800   12.9900   13.0000   13.0100   13.0200   13.0300
   13.0400   13.0500   13.0600   13.0700   13.0800   13.0900   13.1000   13.1100
   13.1200   13.1300   13.1400   13.1500   13.1600   13.1700   13.1800   13.1900
   13.2000   13.2100   13.2200   13.2300   13.2400   13.2500   13.2600   13.2700
   13.2800   13.2900   13.3000   13.3100   13.3200   13.3300   13.3400   13.3500
   13.3600   13.3700   13.3800   13.3900   13.4000   13.4100   13.4200   13.4300
   13.4400   13.4500   13.4600   13.4700   13.4800   13.4900   13.5000   13.5100
   13.5200   13.5300   13.5400   13.5500   13.5600   13.5700   13.5800   13.5900
   13.6000   13.6100   13.6200   13.6300   13.6400   13.6500   13.6600   13.6700
   13.6800   13.6900   13.7000   13.7100   13.7200   13.7300   13.7400   13.7500
   13.7600   13.7700   13.7800   13.7900   13.8000   13.8100   13.8200   13.8300
   13.8400   13.8500   13.8600   13.8700   13.8800   13.8900   13.9000   13.9100
   13.9200   13.9300   13.9400   13.9500   13.9600   13.9700   13.9800   13.9900
   14.0000   14.0100   14.0200   14.0300   14.0400   14.0500   14.0600   14.0700
   14.0800   14.0900   14.1000   14.1100   14.1200   14.1300   14.1400   14.1500
   14.1600   14.1700   14.1800   14.1900   14.2000   14.2100   14.2200   14.2300
   14.2400   14.2500   14.2600   14.2700   14.2800   14.2900   14.3000   14.3100
   14.3200   14.3300   14.3400   14.3500   14.3600   14.3700   14.3800   14.3900
   14.4000   14.4100   14.4200   14.4300   14.4400   14.4500   14.4600   14.4700
   14.4800   14.4900   14.5000   14.5100   14.5200   14.5300   14.5400   14.5500
   14.5600   14.5700   14.5800   14.5900   14.6000   14.6100   14.6200   14.6300
   14.6400   14.6500   14.6600   14.6700   14.6800   14.6900   14.7000   14.7100
   14.7200   14.7300   14.7400   14.7500   14.7600   14.7700   14.7800   14.7900
   14.8000   14.8100   14.8200   14.8300   14.8400   14.8500   14.8600   14.8700
   14.8800   14.8900   14.9000   14.9100   14.9200   14.9300   14.9400   14.9500
   14.9600   14.9700   14.9800   14.9900   15.0000   15.0100   15.0200   15.0300
   15.0400   15.0500   15.0600   15.0700   15.0800   15.0900   15.1000   15.1100
   15.1200   15.1300   15.1400   15.1500   15.1600   15.1700   15.1800   15.1900
   15.2000   15.2100   15.2200   15.2300   15.2400   15.2500   15.2600   15.2700
   15.2800   15.2900   15.3000   15.3100   15.3200   15.3300   15.3400   15.3500
   15.3600   15.3700   15.3800   15.3900   15.4000   15.4100   15.4200   15.4300
   15.4400   15.4500   15.4600   15.4700   15.4800   15.4900   15.5000   15.5100
   15.5200   15.5300   15.5400   15.5500   15.5600   15.5700   15.5800   15.5900
   15.6000   15.6100   15.6200   15.6300   15.6400   15.6500   15.6600   15.6700
   15.6800   15.6900   15.7000   15.7100   15.7200   15.7300   15.7400   15.7500
   15.7600   15.7700   15.7800   15.7900   15.8000   15.8100   15.8200   15.8300
   15.8400   15.8500   15.8600   15.8700   15.8800   15.8900   15.9000   15.9100
   15.9200   15.9300   15.9400   15.9500   15.9600   15.9700   15.9800   15.9900
   16.0000   16.0100   16.0200   16.0300   16.0400   16.0500   16.0600   16.0700
   16.0800   16.0900   16.1000   16.1100   16.1200   16.1300   16.1400   16.1500
   16.1600   16.1700   16.1800   16.1900   16.2000   16.2100   16.2200   16.2300
   16.2400   16.2500   16.2600   16.2700   16.2800   16.2900   16.3000   16.3100
   16.3200   16.3300   16.3400   16.3500   16.3600   16.3700   16.3800   16.3900
   16.4000   16.4100   16.4200   16.4300   16.4400   16.4500   16.4600   16.4700
   16.4800   16.4900   16.5000   16.5100   16.5200   16.5300   16.5400   16.5500
   16.5600   16.5700   16.5800   16.5900   16.6000   16.6100   16.6200   16.6300
   16.6400   16.6500   16.6600   16.6700   16.6800   16.6900   16.7000   16.7100
   16.7200   16.7300   16.7400   16.7500   16.7600   16.7700   16.7800   16.7900
   16.8000   16.8100   16.8200   16.8300   16.8400   16.8500   16.8600   16.8700
   16.8800   16.8900   16.9000   16.9100   16.9200   16.9300   16.9400   16.9500
   16.9600   16.9700   16.9800   16.9900   17.0000   17.0100   17.0200   17.0300
   17.0400   17.0500   17.0600   17.0700   17.0800   17.0900   17.1000   17.1100
   17.1200   17.1300   17.1400   17.1500   17.1600   17.1700   17.1800   17.1900
   17.2000   17.2100   17.2200   17.2300   17.2400   17.2500   17.2600   17.2700
   17.2800   17.2900   17.3000   17.3100   17.3200   17.3300   17.3400   17.3500
   17.3600   17.3700   17.3800   17.3900   17.4000   17.4100   17.4200   17.4300
   17.4400   17.4500   17.4600   17.4700   17.4800   17.4900   17.5000   17.5100
   17.5200   17.5300   17.5400   17.5500   17.5600   17.5700   17.5800   17.5900
   17.6000   17.6100   17.6200   17.6300   17.6400   17.6500   17.6600   17.6700
   17.6800   17.6900   17.7000   17.7100   17.7200   17.7300   17.7400   17.7500
   17.7600   17.7700   17.7800   17.7900   17.8000   17.8100   17.8200   17.8300
   17.8400   17.8500   17.8600   17.8700   17.8800   17.8900   17.9000   17.9100
   17.9200   17.9300   17.9400   17.9500   17.9600   17.9700   17.9800   17.9900
   18.0000   18.0100   18.0200   18.0300   18.0400   18.0500   18.0600   18.0700
   18.0800   18.0900   18.1000   18.1100   18.1200   18.1300   18.1400   18.1500
   18.1600   18.1700   18.1800   18.1900   18.2000   18.2100   18.2200   18.2300
   18.2400   18.2500   18.2600   18.2700   18.2800   18.2900   18.3000   18.3100
   18.3200   18.3300   18.3400   18.3500   18.3600   18.3700   18.3800   18.3900
   18.4000   18.4100   18.4200   18.4300   18.4400   18.4500   18.4600   18.4700
   18.4800   18.4900   18.5000   18.5100   18.5200   18.5300   18.5400   18.5500
   18.5600   18.5700   18.5800   18.5900   18.6000   18.6100   18.6200   18.6300
   18.6400   18.6500   18.6600   18.6700   18.6800   18.6900   18.7000   18.7100
   18.7200   18.7300   18.7400   18.7500   18.7600   18.7700   18.7800   18.7900
   18.8000   18.8100   18.8200   18.8300   18.8400   18.8500   18.8600   18.8700
   18.8800   18.8900   18.9000   18.9100   18.9200   18.9300   18.9400   18.9500
   18.9600   18.9700   18.9800   18.9900   19.0000   19.0100   19.0200   19.0300
   19.0400   19.0500   19.0600   19.0700   19.0800   19.0900   19.1000   19.1100
   19.1200   19.1300   19.1400   19.1500   19.1600   19.1700   19.1800   19.1900
   19.2000   19.2100   19.2200   19.2300   19.2400   19.2500   19.2600   19.2700
   19.2800   19.2900   19.3000   19.3100   19.3200   19.3300   19.3400   19.3500
   19.3600   19.3700   19.3800   19.3900   19.4000   19.4100   19.4200   19.4300
   19.4400   19.4500   19.4600   19.4700   19.4800   19.4900   19.5000   19.5100
   19.5200   19.5300   19.5400   19.5500   19.5600   19.5700   19.5800   19.5900
   19.6000   19.6100   19.6200   19.6300   19.6400   19.6500   19.6600   19.6700
   19.6800   19.6900   19.7000   19.7100   19.7200   19.7300   19.7400   19.7500
   19.7600   19.7700   19.7800   19.7900   19.8000   19.8100   19.8200   19.8300
   19.8400   19.8500   19.8600   19.8700   19.8800   19.8900   19.9000   19.9100
   19.9200   19.9300   19.9400   19.9500   19.9600   19.9700   19.9800   19.9900
   20.0000   20.0100   20.0200   20.0300   20.0400   20.0500   20.0600   20.0700
   20.0800   20.0900   20.1000   20.1100   20.1200   20.1300   20.1400   20.1500
   20.1600   20.1700   20.1800   20.1900   20.2000   20.2100   20.2200   20.2300
   20.2400   20.2500   20.2600   20.2700   20.2800   20.2900   20.3000   20.3100
   20.3200   20.3300   20.3400   20.3500   20.3600   20.3700   20.3800   20.3900
   20.4000   20.4100   20.4200   20.4300   20.4400   20.4500   20.4600   20.4700
   20.4800   20.4900   20.5000   20.5100   20.5200   20.5300   20.5400   20.5500
   20.5600   20.5700   20.5800   20.5900   20.6000   20.6100   20.6200   20.6300
   20.6400   20.6500   20.6600   20.6700   20.6800   20.6900   20.7000   20.7100
   20.7200   20.7300   20.7400   20.7500   20.7600   20.7700   20.7800   20.7900
   20.8000   20.8100   20.8200   20.8300   20.8400   20.8500   20.8600   20.8700
   20.8800   20.8900   20.9000   20.9100   20.9200   20.9300   20.9400   20.9500
   20.9600   20.9700   20.9800   20.9900   21.0000   21.0100   21.0200   21.0300
   21.0400   21.0500   21.0600   21.0700   21.0800   21.0900   21.1000   21.1100
   21.1200   21.1300   21.1400   21.1500   21.1600   21.1700   21.1800   21.1900
   21.2000   21.2100   21.2200   21.2300   21.2400   21.2500   21.2600   21.2700
   21.2800   21.2900   21.3000   21.3100   21.3200   21.3300   21.3400   21.3500
   21.3600   21.3700   21.3800   21.3900   21.4000   21.4100   21.4200   21.4300
   21.4400   21.4500   21.4600   21.4700   21.4800   21.4900   21.5000   21.5100
   21.5200   21.5300   21.5400   21.5500   21.5600   21.5700   21.5800   21.5900
   21.6000   21.6100   21.6200   21.6300   21.6400   21.6500   21.6600   21.6700
   21.6800   21.6900   21.7000   21.7100   21.7200   21.7300   21.7400   21.7500
   21.7600   21.7700   21.7800   21.7900   21.8000   21.8100   21.8200   21.8300
   21.8400   21.8500   21.8600   21.8700   21.8800   21.8900   21.9000   21.9100
   21.9200   21.9300   21.9400   21.9500   21.9600   21.9700   21.9800   21.9900
   22.0000   22.0100   22.0200   22.0300   22.0400   22.0500   22.0600   22.0700
   22.0800   22.0900   22.1000   22.1100   22.1200   22.1300   22.1400   22.1500
   22.1600   22.1700   22.1800   22.1900   22.2000   22.2100   22.2200   22.2300
   22.2400   22.2500   22.2600   22.2700   22.2800   22.2900   22.3000   22.3100
   22.3200   22.3300   22.3400   22.3500   22.3600   22.3700   22.3800   22.3900
   22.4000   22.4100   22.4200   22.4300   22.4400   22.4500   22.4600   22.4700
   22.4800   22.4900   22.5000   22.5100   22.5200   22.5300   22.5400   22.5500
   22.5600   22.5700   22.5800   22.5900   22.6000   22.6100   22.6200   22.6300
   22.6400   22.6500   22.6600   22.6700   22.6800   22.6900   22.7000   22.7100
   22.7200   22.7300   22.7400   22.7500   22.7600   22.7700   22.7800   22.7900
   22.8000   22.8100   22.8200   22.8300   22.8400   22.8500   22.8600   22.8700
   22.8800   22.8900   22.9000   22.9100   22.9200   22.9300   22.9400   22.9500
   22.9600   22.9700   22.9800   22.9900   23.0000   23.0100   23.0200   23.0300
   23.0400   23.0500   23.0600   23.0700   23.0800   23.0900   23.1000   23.1100
   23.1200   23.1300   23.1400   23.1500   23.1600   23.1700   23.1800   23.1900
   23.2000   23.2100   23.2200   23.2300   23.2400   23.2500   23.2600   23.2700
   23.2800   23.2900   23.3000   23.3100   23.3200   23.3300   23.3400   23.3500
   23.3600   23.3700   23.3800   23.3900   23.4000   23.4100   23.4200   23.4300
   23.4400   23.4500   23.4600   23.4700   23.4800   23.4900   23.5000   23.5100
   23.5200   23.5300   23.5400   23.5500   23.5600   23.5700   23.5800   23.5900
   23.6000   23.6100   23.6200   23.6300   23.6400   23.6500   23.6600   23.6700
   23.6800   23.6900   23.7000   23.7100   23.7200   23.7300   23.7400   23.7500
   23.7600   23.7700   23.7800   23.7900   23.8000   23.8100   23.8200   23.8300
   23.8400   23.8500   23.8600   23.8700   23.8800   23.8900   23.9000   23.9100
   23.9200   23.9300   23.9400   23.9500   23.9600   23.9700   23.9800   23.9900
   24.0000   24.0100   24.0200   24.0300   24.0400   24.0500   24.0600   24.0700
   24.0800   24.0900   24.1000   24.1100   24.1200   24.1300   24.1400   24.1500
   24.1600   24.1700   24.1800   24.1900   24.2000   24.2100   24.2200   24.2300
   24.2400   24.2500   24.2600   24.2700   24.2800   24.2900   24.3000   24.3100
   24.3200   24.3300   24.3400   24.3500   24.3600   24.3700   24.3800   24.3900
   24.4000   24.4100   24.4200   24.4300   24.4400   24.4500   24.4600   24.4700
   24.4800   24.4900   24.5000   24.5100   24.5200   24.5300   24.5400   24.5500
   24.5600   24.5700   24.5800   24.5900   24.6000   24.6100   24.6200   24.6300
   24.6400   24.6500   24.6600   24.6700   24.6800   24.6900   24.7000   24.7100
   24.7200   24.7300   24.7400   24.7500   24.7600   24.7700   24.7800   24.7900
   24.8000   24.8100   24.8200   24.8300   24.8400   24.8500   24.8600   24.8700
   24.8800   24.8900   24.9000   24.9100   24.9200   24.9300   24.9400   24.9500
   24.9600   24.9700   24.9800   24.9900   25.0000   25.0100   25.0200   25.0300
   25.0400   25.0500   25.0600   25.0700   25.0800   25.0900   25.1000   25.1100
   25.1200   25.1300   25.1400   25.1500   25.1600   25.1700   25.1800   25.1900
   25.2000   25.2100   25.2200   25.2300   25.2400   25.2500   25.2600   25.2700
   25.2800   25.2900   25.3000   25.3100   25.3200   25.3300   25.3400   25.3500
   25.3600   25.3700   25.3800   25.3900   25.4000   25.4100   25.4200   25.4300
   25.4400   25.4500   25.4600   25.4700   25.4800   25.4900   25.5000   25.5100
   25.5200   25.5300   25.5400   25.5500   25.5600   25.5700   25.5800   25.5900
   25.6000   25.6100   25.6200   25.6300   25.6400   25.6500   25.6600   25.6700
   25.6800   25.6900   25.7000   25.7100   25.7200   25.7300   25.7400   25.7500
   25.7600   25.7700   25.7800   25.7900   25.8000   25.8100   25.8200   25.8300
   25.8400   25.8500   25.8600   25.8700   25.8800   25.8900   25.9000   25.9100
   25.9200   25.9300   25.9400   25.9500   25.9600   25.9700   25.9800   25.9900
   26.0000   26.0100   26.0200   26.0300   26.0400   26.0500   26.0600   26.0700
   26.0800   26.0900   26.1000   26.1100   26.1200   26.1300   26.1400   26.1500
   26.1600   26.1700   26.1800   26.1900   26.2000   26.2100   26.2200   26.2300
   26.2400   26.2500   26.2600   26.2700   26.2800   26.2900   26.3000   26.3100
   26.3200   26.3300   26.3400   26.3500   26.3600   26.3700   26.3800   26.3900
   26.4000   26.4100   26.4200   26.4300   26.4400   26.4500   26.4600   26.4700
   26.4800   26.4900   26.5000   26.5100   26.5200   26.5300   26.5400   26.5500
   26.5600   26.5700   26.5800   26.5900   26.6000   26.6100   26.6200   26.6300
   26.6400   26.6500   26.6600   26.6700   26.6800   26.6900   26.7000   26.7100
   26.7200   26.7300   26.7400   26.7500   26.7600   26.7700   26.7800   26.7900
   26.8000   26.8100   26.8200   26.8300   26.8400   26.8500   26.8600   26.8700
   26.8800   26.8900   26.9000   26.9100   26.9200   26.9300   26.9400   26.9500
   26.9600   26.9700   26.9800   26.9900   27.0000   27.0100   27.0200   27.0300
   27.0400   27.0500   27.0600   27.0700   27.0800   27.0900   27.1000   27.1100
   27.1200   27.1300   27.1400   27.1500   27.1600   27.1700   27.1800   27.1900
   27.2000   27.2100   27.2200   27.2300   27.2400   27.2500   27.2600   27.2700
   27.2800   27.2900   27.3000   27.3100   27.3200   27.3300   27.3400   27.3500
   27.3600   27.3700   27.3800   27.3900   27.4000   27.4100   27.4200   27.4300
   27.4400   27.4500   27.4600   27.4700   27.4800   27.4900   27.5000   27.5100
   27.5200   27.5300   27.5400   27.5500   27.5600   27.5700   27.5800   27.5900
   27.6000   27.6100   27.6200   27.6300   27.6400   27.6500   27.6600   27.6700
   27.6800   27.6900   27.7000   27.7100   27.7200   27.7300   27.7400   27.7500
   27.7600   27.7700   27.7800   27.7900   27.8000   27.8100   27.8200   27.8300
   27.8400   27.8500   27.8600   27.8700   27.8800   27.8900   27.9000   27.9100
   27.9200   27.9300   27.9400   27.9500   27.9600   27.9700   27.9800   27.9900
   28.0000   28.0100   28.0200   28.0300   28.0400   28.0500   28.0600   28.0700
   28.0800   28.0900   28.1000   28.1100   28.1200   28.1300   28.1400   28.1500
   28.1600   28.1700   28.1800   28.1900   28.2000   28.2100   28.2200   28.2300
   28.2400   28.2500   28.2600   28.2700   28.2800   28.2900   28.3000   28.3100
   28.3200   28.3300   28.3400   28.3500   28.3600   28.3700   28.3800   28.3900
   28.4000   28.4100   28.4200   28.4300   28.4400   28.4500   28.4600   28.4700
   28.4800   28.4900   28.5000   28.5100   28.5200   28.5300   28.5400   28.5500
   28.5600   28.5700   28.5800   28.5900   28.6000   28.6100   28.6200   28.6300
   28.6400   28.6500   28.6600   28.6700   28.6800   28.6900   28.7000   28.7100
   28.7200   28.7300   28.7400   28.7500   28.7600   28.7700   28.7800   28.7900
   28.8000   28.8100   28.8200   28.8300   28.8400   28.8500   28.8600   28.8700
   28.8800   28.8900   28.9000   28.9100   28.9200   28.9300   28.9400   28.9500
   28.9600   28.9700   28.9800   28.9900   29.0000   29.0100   29.0200   29.0300
   29.0400   29.0500   29.0600   29.0700   29.0800   29.0900   29.1000   29.1100
   29.1200   29.1300   29.1400   29.1500   29.1600   29.1700   29.1800   29.1900
   29.2000   29.2100   29.2200   29.2300   29.2400   29.2500   29.2600   29.2700
   29.2800   29.2900   29.3000   29.3100   29.3200   29.3300   29.3400   29.3500
   29.3600   29.3700   29.3800   29.3900   29.4000   29.4100   29.4200   29.4300
   29.4400   29.4500   29.4600   29.4700   29.4800   29.4900   29.5000   29.5100
   29.5200   29.5300   29.5400   29.5500   29.5600   29.5700   29.5800   29.5900
   29.6000   29.6100   29.6200   29.6300   29.6400   29.6500   29.6600   29.6700
   29.6800   29.6900   29.7000   29.7100   29.7200   29.7300   29.7400   29.7500
   29.7600   29.7700   29.7800   29.7900   29.8000   29.8100   29.8200   29.8300
   29.8400   29.8500   29.8600   29.8700   29.8800   29.8900   29.9000   29.9100
   29.9200   29.9300   29.9400   29.9500   29.9600   29.9700   29.9800   29.9900
   30.0000   30.0100   30.0200   30.0300   30.0400   30.0500   30.0600   30.0700
   30.0800   30.0900   30.1000   30.1100   30.1200   30.1300   30.1400   30.1500
   30.1600   30.1700   30.1800   30.1900   30.2000   30.2100   30.2200   30.2300
   30.2400   30.2500   30.2600   30.2700   30.2800   30.2900   30.3000   30.3100
   30.3200   30.3300   30.3400   30.3500   30.3600   30.3700   30.3800   30.3900
   30.4000   30.4100   30.4200   30.4300   30.4400   30.4500   30.4600   30.4700
   30.4800   30.4900   30.5000   30.5100   30.5200   30.5300   30.5400   30.5500
   30.5600   30.5700   30.5800   30.5900   30.6000   30.6100   30.6200   30.6300
   30.6400   30.6500   30.6600   30.6700   30.6800   30.6900   30.7000   30.7100
   30.7200   30.7300   30.7400   30.7500   30.7600   30.7700   30.7800   30.7900
   30.8000   30.8100   30.8200   30.8300   30.8400   30.8500   30.8600   30.8700
   30.8800   30.8900   30.9000   30.9100   30.9200   30.9300   30.9400   30.9500
   30.9600   30.9700   30.9800   30.9900   31.0000   31.0100   31.0200   31.0300
   31.0400   31.0500   31.0600   31.0700   31.0800   31.0900   31.1000   31.1100
   31.1200   31.1300   31.1400   31.1500   31.1600   31.1700   31.1800   31.1900
   31.2000   31.2100   31.2200   31.2300   31.2400   31.2500   31.2600   31.2700
   31.2800   31.2900   31.3000   31.3100   31.3200   31.3300   31.3400   31.3500
   31.3600   31.3700   31.3800   31.3900   31.4000   31.4100   31.4200   31.4300
   31.4400   31.4500   31.4600   31.4700   31.4800   31.4900   31.5000   31.5100
   31.5200   31.5300   31.5400   31.5500   31.5600   31.5700   31.5800   31.5900
   31.6000   31.6100   31.6200   31.6300   31.6400   31.6500   31.6600   31.6700
   31.6800   31.6900   31.7000   31.7100   31.7200   31.7300   31.7400   31.7500
   31.7600   31.7700   31.7800   31.7900   31.8000   31.8100   31.8200   31.8300
   31.8400   31.8500   31.8600   31.8700   31.8800   31.8900   31.9000   31.9100
   31.9200   31.9300   31.9400   31.9500   31.9600   31.9700   31.9800   31.9900
   32.0000   32.0100   32.0200   32.0300   32.0400   32.0500   32.0600   32.0700
   32.0800   32.0900   32.1000   32.1100   32.1200   32.1300   32.1400   32.1500
   32.1600   32.1700   32.1800   32.1900   32.2000   32.2100   32.2200   32.2300
   32.2400   32.2500   32.2600   32.2700   32.2800   32.2900   32.3000   32.3100
   32.3200   32.3300   32.3400   32.3500   32.3600   32.3700   32.3800   32.3900
   32.4000   32.4100   32.4200   32.4300   32.4400   32.4500   32.4600   32.4700
   32.4800   32.4900   32.5000   32.5100   32.5200   32.5300   32.5400   32.5500
   32.5600   32.5700   32.5800   32.5900   32.6000   32.6100   32.6200   32.6300
   32.6400   32.6500   32.6600   32.6700   32.6800   32.6900   32.7000   32.7100
   32.7200   32.7300   32.7400   32.7500   32.7600   32.7700   32.7800   32.7900
   32.8000   32.8100   32.8200   32.8300   32.8400   32.8500   32.8600   32.8700
   32.8800   32.8900   32.9000   32.9100   32.9200   32.9300   32.9400   32.9500
   32.9600   32.9700   32.9800   32.9900   33.0000   33.0100   33.0200   33.0300
   33.0400   33.0500   33.0600   33.0700   33.0800   33.0900   33.1000   33.1100
   33.1200   33.1300   33.1400   33.1500   33.1600   33.1700   33.1800   33.1900
   33.2000   33.2100   33.2200   33.2300   33.2400   33.2500   33.2600   33.2700
   33.2800   33.2900   33.3000   33.3100   33.3200   33.3300   33.3400   33.3500
   33.3600   33.3700   33.3800   33.3900   33.4000   33.4100   33.4200   33.4300
   33.4400   33.4500   33.4600   33.4700   33.4800   33.4900   33.5000   33.5100
   33.5200   33.5300   33.5400   33.5500   33.5600   33.5700   33.5800   33.5900
   33.6000   33.6100   33.6200   33.6300   33.6400   33.6500   33.6600   33.6700
   33.6800   33.6900   33.7000   33.7100   33.7200   33.7300   33.7400   33.7500
   33.7600   33.7700   33.7800   33.7900   33.8000   33.8100   33.8200   33.8300
   33.8400   33.8500   33.8600   33.8700   33.8800   33.8900   33.9000   33.9100
   33.9200   33.9300   33.9400   33.9500   33.9600   33.9700   33.9800   33.9900
   34.0000   34.0100   34.0200   34.0300   34.0400   34.0500   34.0600   34.0700
   34.0800   34.0900   34.1000   34.1100   34.1200   34.1300   34.1400   34.1500
   34.1600   34.1700   34.1800   34.1900   34.2000   34.2100   34.2200   34.2300
   34.2400   34.2500   34.2600   34.2700   34.2800   34.2900   34.3000   34.3100
   34.3200   34.3300   34.3400   34.3500   34.3600   34.3700   34.3800   34.3900
   34.4000   34.4100   34.4200   34.4300   34.4400   34.4500   34.4600   34.4700
   34.4800   34.4900   34.5000   34.5100   34.5200   34.5300   34.5400   34.5500
   34.5600   34.5700   34.5800   34.5900   34.6000   34.6100   34.6200   34.6300
   34.6400   34.6500   34.6600   34.6700   34.6800   34.6900   34.7000   34.7100
   34.7200   34.7300   34.7400   34.7500   34.7600   34.7700   34.7800   34.7900
   34.8000   34.8100   34.8200   34.8300   34.8400   34.8500   34.8600   34.8700
   34.8800   34.8900   34.9000   34.9100   34.9200   34.9300   34.9400   34.9500
   34.9600   34.9700   34.9800   34.9900   35.0000   35.0100   35.0200   35.0300
   35.0400   35.0500   35.0600   35.0700   35.0800   35.0900   35.1000   35.1100
   35.1200   35.1300   35.1400   35.1500   35.1600   35.1700   35.1800   35.1900
   35.2000   35.2100   35.2200   35.2300   35.2400   35.2500   35.2600   35.2700
   35.2800   35.2900   35.3000   35.3100   35.3200   35.3300   35.3400   35.3500
   35.3600   35.3700   35.3800   35.3900   35.4000   35.4100   35.4200   35.4300
   35.4400   35.4500   35.4600   35.4700   35.4800   35.4900   35.5000   35.5100
   35.5200   35.5300   35.5400   35.5500   35.5600   35.5700   35.5800   35.5900
   35.6000   35.6100   35.6200   35.6300   35.6400   35.6500   35.6600   35.6700
   35.6800   35.6900   35.7000   35.7100   35.7200   35.7300   35.7400   35.7500
   35.7600   35.7700   35.7800   35.7900   35.8000   35.8100   35.8200   35.8300
   35.8400   35.8500   35.8600   35.8700   35.8800   35.8900   35.9000   35.9100
   35.9200   35.9300   35.9400   35.9500   35.9600   35.9700   35.9800   35.9900
   36.0000   36.0100   36.0200   36.0300   36.0400   36.0500   36.0600   36.0700
   36.0800   36.0900   36.1000   36.1100   36.1200   36.1300   36.1400   36.1500
   36.1600   36.1700   36.1800   36.1900   36.2000   36.2100   36.2200   36.2300
   36.2400   36.2500   36.2600   36.2700   36.2800   36.2900   36.3000   36.3100
   36.3200   36.3300   36.3400   36.3500   36.3600   36.3700   36.3800   36.3900
   36.4000   36.4100   36.4200   36.4300   36.4400   36.4500   36.4600   36.4700
   36.4800   36.4900   36.5000   36.5100   36.5200   36.5300   36.5400   36.5500
   36.5600   36.5700   36.5800   36.5900   36.6000   36.6100   36.6200   36.6300
   36.6400   36.6500   36.6600   36.6700   36.6800   36.6900   36.7000   36.7100
   36.7200   36.7300   36.7400   36.7500   36.7600   36.7700   36.7800   36.7900
   36.8000   36.8100   36.8200   36.8300   36.8400   36.8500   36.8600   36.8700
   36.8800   36.8900   36.9000   36.9100   36.9200   36.9300   36.9400   36.9500
   36.9600   36.9700   36.9800   36.9900   37.0000   37.0100   37.0200   37.0300
   37.0400   37.0500   37.0600   37.0700   37.0800   37.0900   37.1000   37.1100
   37.1200   37.1300   37.1400   37.1500   37.1600   37.1700   37.1800   37.1900
   37.2000   37.2100   37.2200   37.2300   37.2400   37.2500   37.2600   37.2700
   37.2800   37.2900   37.3000   37.3100   37.3200   37.3300   37.3400   37.3500
   37.3600   37.3700   37.3800   37.3900   37.4000   37.4100   37.4200   37.4300
   37.4400   37.4500   37.4600   37.4700   37.4800   37.4900   37.5000   37.5100
   37.5200   37.5300   37.5400   37.5500   37.5600   37.5700   37.5800   37.5900
   37.6000   37.6100   37.6200   37.6300   37.6400   37.6500   37.6600   37.6700
   37.6800   37.6900   37.7000   37.7100   37.7200   37.7300   37.7400   37.7500
   37.7600   37.7700   37.7800   37.7900   37.8000   37.8100   37.8200   37.8300
   37.8400   37.8500   37.8600   37.8700   37.8800   37.8900   37.9000   37.9100
   37.9200   37.9300   37.9400   37.9500   37.9600   37.9700   37.9800   37.9900
   38.0000   38.0100   38.0200   38.0300   38.0400   38.0500   38.0600   38.0700
   38.0800   38.0900   38.1000   38.1100   38.1200   38.1300   38.1400   38.1500
   38.1600   38.1700   38.1800   38.1900   38.2000   38.2100   38.2200   38.2300
   38.2400   38.2500   38.2600   38.2700   38.2800   38.2900   38.3000   38.3100
   38.3200   38.3300   38.3400   38.3500   38.3600   38.3700   38.3800   38.3900
   38.4000   38.4100   38.4200   38.4300   38.4400   38.4500   38.4600   38.4700
   38.4800   38.4900   38.5000   38.5100   38.5200   38.5300   38.5400   38.5500
   38.5600   38.5700   38.5800   38.5900   38.6000   38.6100   38.6200   38.6300
   38.6400   38.6500   38.6600   38.6700   38.6800   38.6900   38.7000   38.7100
   38.7200   38.7300   38.7400   38.7500   38.7600   38.7700   38.7800   38.7900
   38.8000   38.8100   38.8200   38.8300   38.8400   38.8500   38.8600   38.8700
   38.8800   38.8900   38.9000   38.9100   38.9200   38.9300   38.9400   38.9500
   38.9600   38.9700   38.9800   38.9900   39.0000   39.0100   39.0200   39.0300
   39.0400   39.0500   39.0600   39.0700   39.0800   39.0900   39.1000   39.1100
   39.1200   39.1300   39.1400   39.1500   39.1600   39.1700   39.1800   39.1900
   39.2000   39.2100   39.2200   39.2300   39.2400   39.2500   39.2600   39.2700
   39.2800   39.2900   39.3000   39.3100   39.3200   39.3300   39.3400   39.3500
   39.3600   39.3700   39.3800   39.3900   39.4000   39.4100   39.4200   39.4300
   39.4400   39.4500   39.4600   39.4700   39.4800   39.4900   39.5000   39.5100
   39.5200   39.5300   39.5400   39.5500   39.5600   39.5700   39.5800   39.5900
   39.6000   39.6100   39.6200   39.6300   39.6400   39.6500   39.6600   39.6700
   39.6800   39.6900   39.7000   39.7100   39.7200   39.7300   39.7400   39.7500
   39.7600   39.7700   39.7800   39.7900   39.8000   39.8100   39.8200   39.8300
   39.8400   39.8500   39.8600   39.8700   39.8800   39.8900   39.9000   39.9100
   39.9200   39.9300   39.9400   39.9500   39.9600   39.9700   39.9800   39.9900
   40.0000   40.0100   40.0200   40.0300   40.0400   40.0500   40.0600   40.0700
   40.0800   40.0900   40.1000   40.1100   40.1200   40.1300   40.1400   40.1500
   40.1600   40.1700   40.1800   40.1900   40.2000   40.2100   40.2200   40.2300
   40.2400   40.2500   40.2600   40.2700   40.2800   40.2900   40.3000   40.3100
   40.3200   40.3300   40.3400   40.3500   40.3600   40.3700   40.3800   40.3900
   40.4000   40.4100   40.4200   40.4300   40.4400   40.4500   40.4600   40.4700
   40.4800   40.4900   40.5000   40.5100   40.5200   40.5300   40.5400   40.5500
   40.5600   40.5700   40.5800   40.5900   40.6000   40.6100   40.6200   40.6300
   40.6400   40.6500   40.6600   40.6700   40.6800   40.6900   40.7000   40.7100
   40.7200   40.7300   40.7400   40.7500   40.7600   40.7700   40.7800   40.7900
   40.8000   40.8100   40.8200   40.8300   40.8400   40.8500   40.8600   40.8700
   40.8800   40.8900   40.9000   40.9100   40.9200   40.9300   40.9400   40.9500
   40.9600   40.9700   40.9800   40.9900   41.0000   41.0100   41.0200   41.0300
   41.0400   41.0500   41.0600   41.0700   41.0800   41.0900   41.1000   41.1100
   41.1200   41.1300   41.1400   41.1500   41.1600   41.1700   41.1800   41.1900
   41.2000   41.2100   41.2200   41.2300   41.2400   41.2500   41.2600   41.2700
   41.2800   41.2900   41.3000   41.3100   41.3200   41.3300   41.3400   41.3500
   41.3600   41.3700   41.3800   41.3900   41.4000   41.4100   41.4200   41.4300
   41.4400   41.4500   41.4600   41.4700   41.4800   41.4900   41.5000   41.5100
   41.5200   41.5300   41.5400   41.5500   41.5600   41.5700   41.5800   41.5900
   41.6000   41.6100   41.6200   41.6300   41.6400   41.6500   41.6600   41.6700
   41.6800   41.6900   41.7000   41.7100   41.7200   41.7300   41.7400   41.7500
   41.7600   41.7700   41.7800   41.7900   41.8000   41.8100   41.8200   41.8300
   41.8400   41.8500   41.8600   41.8700   41.8800   41.8900   41.9000   41.9100
   41.9200   41.9300   41.9400   41.9500   41.9600   41.9700   41.9800   41.9900
   42.0000   42.0100   42.0200   42.0300   42.0400   42.0500   42.0600   42.0700
   42.0800   42.0900   42.1000   42.1100   42.1200   42.1300   42.1400   42.1500
   42.1600   42.1700   42.1800   42.1900   42.2000   42.2100   42.2200   42.2300
   42.2400   42.2500   42.2600   42.2700   42.2800   42.2900   42.3000   42.3100
   42.3200   42.3300   42.3400   42.3500   42.3600   42.3700   42.3800   42.3900
   42.4000   42.4100   42.4200   42.4300   42.4400   42.4500   42.4600   42.4700
   42.4800   42.4900   42.5000   42.5100   42.5200   42.5300   42.5400   42.5500
   42.5600   42.5700   42.5800   42.5900   42.6000   42.6100   42.6200   42.6300
   42.6400   42.6500   42.6600   42.6700   42.6800   42.6900   42.7000   42.7100
   42.7200   42.7300   42.7400   42.7500   42.7600   42.7700   42.7800   42.7900
   42.8000   42.8100   42.8200   42.8300   42.8400   42.8500   42.8600   42.8700
   42.8800   42.8900   42.9000   42.9100   42.9200   42.9300   42.9400   42.9500
   42.9600   42.9700   42.9800   42.9900   43.0000   43.0100   43.0200   43.0300
   43.0400   43.0500   43.0600   43.0700   43.0800   43.0900   43.1000   43.1100
   43.1200   43.1300   43.1400   43.1500   43.1600   43.1700   43.1800   43.1900
   43.2000   43.2100   43.2200   43.2300   43.2400   43.2500   43.2600   43.2700
   43.2800   43.2900   43.3000   43.3100   43.3200   43.3300   43.3400   43.3500
   43.3600   43.3700   43.3800   43.3900   43.4000   43.4100   43.4200   43.4300
   43.4400   43.4500   43.4600   43.4700   43.4800   43.4900   43.5000   43.5100
   43.5200   43.5300   43.5400   43.5500   43.5600   43.5700   43.5800   43.5900
   43.6000   43.6100   43.6200   43.6300   43.6400   43.6500   43.6600   43.6700
   43.6800   43.6900   43.7000   43.7100   43.7200   43.7300   43.7400   43.7500
   43.7600   43.7700   43.7800   43.7900   43.8000   43.8100   43.8200   43.8300
   43.8400   43.8500   43.8600   43.8700   43.8800   43.8900   43.9000   43.9100
   43.9200   43.9300   43.9400   43.9500   43.9600   43.9700   43.9800   43.9900
   44.0000   44.0100   44.0200   44.0300   44.0400   44.0500   44.0600   44.0700
   44.0800   44.0900   44.1000   44.1100   44.1200   44.1300   44.1400   44.1500
   44.1600   44.1700   44.1800   44.1900   44.2000   44.2100   44.2200   44.2300
   44.2400   44.2500   44.2600   44.2700   44.2800   44.2900   44.3000   44.3100
   44.3200   44.3300   44.3400   44.3500   44.3600   44.3700   44.3800   44.3900
   44.4000   44.4100   44.4200   44.4300   44.4400   44.4500   44.4600   44.4700
   44.4800   44.4900   44.5000   44.5100   44.5200   44.5300   44.5400   44.5500
   44.5600   44.5700   44.5800   44.5900   44.6000   44.6100   44.6200   44.6300
   44.6400   44.6500   44.6600   44.6700   44.6800   44.6900   44.7000   44.7100
   44.7200   44.7300   44.7400   44.7500   44.7600   44.7700   44.7800   44.7900
   44.8000   44.8100   44.8200   44.8300   44.8400   44.8500   44.8600   44.8700
   44.8800   44.8900   44.9000   44.9100   44.9200   44.9300   44.9400   44.9500
   44.9600   44.9700   44.9800   44.9900   45.0000   45.0100   45.0200   45.0300
   45.0400   45.0500   45.0600   45.0700   45.0800   45.0900   45.1000   45.1100
   45.1200   45.1300   45.1400   45.1500   45.1600   45.1700   45.1800   45.1900
   45.2000   45.2100   45.2200   45.2300   45.2400   45.2500   45.2600   45.2700
   45.2800   45.2900   45.3000   45.3100   45.3200   45.3300   45.3400   45.3500
   45.3600   45.3700   45.3800   45.3900   45.4000   45.4100   45.4200   45.4300
   45.4400   45.4500   45.4600   45.4700   45.4800   45.4900   45.5000   45.5100
   45.5200   45.5300   45.5400   45.5500   45.5600   45.5700   45.5800   45.5900
   45.6000   45.6100   45.6200   45.6300   45.6400   45.6500   45.6600   45.6700
   45.6800   45.6900   45.7000   45.7100   45.7200   45.7300   45.7400   45.7500
   45.7600   45.7700   45.7800   45.7900   45.8000   45.8100   45.8200   45.8300
   45.8400   45.8500   45.8600   45.8700   45.8800   45.8900   45.9000   45.9100
   45.9200   45.9300   45.9400   45.9500   45.9600   45.9700   45.9800   45.9900
   46.0000   46.0100   46.0200   46.0300   46.0400   46.0500   46.0600   46.0700
   46.0800   46.0900   46.1000   46.1100   46.1200   46.1300   46.1400   46.1500
   46.1600   46.1700   46.1800   46.1900   46.2000   46.2100   46.2200   46.2300
   46.2400   46.2500   46.2600   46.2700   46.2800   46.2900   46.3000   46.3100
   46.3200   46.3300   46.3400   46.3500   46.3600   46.3700   46.3800   46.3900
   46.4000   46.4100   46.4200   46.4300   46.4400   46.4500   46.4600   46.4700
   46.4800   46.4900   46.5000   46.5100   46.5200   46.5300   46.5400   46.5500
   46.5600   46.5700   46.5800   46.5900   46.6000   46.6100   46.6200   46.6300
   46.6400   46.6500   46.6600   46.6700   46.6800   46.6900   46.7000   46.7100
   46.7200   46.7300   46.7400   46.7500   46.7600   46.7700   46.7800   46.7900
   46.8000   46.8100   46.8200   46.8300   46.8400   46.8500   46.8600   46.8700
   46.8800   46.8900   46.9000   46.9100   46.9200   46.9300   46.9400   46.9500
   46.9600   46.9700   46.9800   46.9900   47.0000   47.0100   47.0200   47.0300
   47.0400   47.0500   47.0600   47.0700   47.0800   47.0900   47.1000   47.1100
   47.1200   47.1300   47.1400   47.1500   47.1600   47.1700   47.1800   47.1900
   47.2000   47.2100   47.2200   47.2300   47.2400   47.2500   47.2600   47.2700
   47.2800   47.2900   47.3000   47.3100   47.3200   47.3300   47.3400   47.3500
   47.3600   47.3700   47.3800   47.3900   47.4000   47.4100   47.4200   47.4300
   47.4400   47.4500   47.4600   47.4700   47.4800   47.4900   47.5000   47.5100
   47.5200   47.5300   47.5400   47.5500   47.5600   47.5700   47.5800   47.5900
   47.6000   47.6100   47.6200   47.6300   47.6400   47.6500   47.6600   47.6700
   47.6800   47.6900   47.7000   47.7100   47.7200   47.7300   47.7400   47.7500
   47.7600   47.7700   47.7800   47.7900   47.8000   47.8100   47.8200   47.8300
   47.8400   47.8500   47.8600   47.8700   47.8800   47.8900   47.9000   47.9100
   47.9200   47.9300   47.9400   47.9500   47.9600   47.9700   47.9800   47.9900
   48.0000   48.0100   48.0200   48.0300   48.0400   48.0500   48.0600   48.0700
   48.0800   48.0900   48.1000   48.1100   48.1200   48.1300   48.1400   48.1500
   48.1600   48.1700   48.1800   48.1900   48.2000   48.2100   48.2200   48.2300
   48.2400   48.2500   48.2600   48.2700   48.2800   48.2900   48.3000   48.3100
   48.3200   48.3300   48.3400   48.3500   48.3600   48.3700   48.3800   48.3900
   48.4000   48.4100   48.4200   48.4300   48.4400   48.4500   48.4600   48.4700
   48.4800   48.4900   48.5000   48.5100   48.5200   48.5300   48.5400   48.5500
   48.5600   48.5700   48.5800   48.5900   48.6000   48.6100   48.6200   48.6300
   48.6400   48.6500   48.6600   48.6700   48.6800   48.6900   48.7000   48.7100
   48.7200   48.7300   48.7400   48.7500   48.7600   48.7700   48.7800   48.7900
   48.8000   48.8100   48.8200   48.8300   48.8400   48.8500   48.8600   48.8700
   48.8800   48.8900   48.9000   48.9100   48.9200   48.9300   48.9400   48.9500
   48.9600   48.9700   48.9800   48.9900   49.0000   49.0100   49.0200   49.0300
   49.0400   49.0500   49.0600   49.0700   49.0800   49.0900   49.1000   49.1100
   49.1200   49.1300   49.1400   49.1500   49.1600   49.1700   49.1800   49.1900
   49.2000   49.2100   49.2200   49.2300   49.2400   49.2500   49.2600   49.2700
   49.2800   49.2900   49.3000   49.3100   49.3200   49.3300   49.3400   49.3500
   49.3600   49.3700   49.3800   49.3900   49.4000   49.4100   49.4200   49.4300
   49.4400   49.4500   49.4600   49.4700   49.4800   49.4900   49.5000   49.5100
   49.5200   49.5300   49.5400   49.5500   49.5600   49.5700   49.5800   49.5900
   49.6000   49.6100   49.6200   49.6300   49.6400   49.6500   49.6600   49.6700
   49.6800   49.6900   49.7000   49.7100   49.7200   49.7300   49.7400   49.7500
   49.7600   49.7700   49.7800   49.7900   49.8000   49.8100   49.8200   49.8300
   49.8400   49.8500   49.8600   49.8700   49.8800   49.8900   49.9000   49.9100
   49.9200   49.9300   49.9400   49.9500   49.9600   49.9700   49.9800   49.9900
   50.0000
   </PP_R>
   <PP_RAB type="real"  size="5001" columns="8">
    0.0100    0.0100    0.0100    0.0100    0.0100    0.0100    0.0100    0.0100
    0.0100    0.0100    0.0100    0.0100    0.0100    0.0100    0.0100    0.0100
    0.0100    0.0100    0.0100    0.0100    0.0100    0.0100    0.0100    0.0100
    0.0100    0.0100    0.0100    0.0100    0.0100    0.0100    0.0100    0.0100
    0.0100    0.0100    0.0100    0.0100    0.0100    0.0100    0.0100    0.0100
    0.0100    0.0100    0.0100    0.0100    0.0100    0.0100    0.0100    0.0100
    0.0100    0.0100    0.0100    0.0100    0.0100    0.0100    0.0100    0.0100
    0.0100    0.0100    0.0100    0.0100    0.0100    0.0100    0.0100    0.0100
    0.0100    0.0100    0.0100    0.0100    0.0100    0.0100    0.0100    0.0100
    0.0100    0.0100    0.0100    0.0100    0.0100    0.0100    0.0100    0.0100
    0.0100    0.0100    0.0100    0.0100    0.0100    0.0100    0.0100    0.0100
    0.0100    0.0100    0.0100    0.0100    0.0100    0.0100    0.0100    0.0100
    0.0100    0.0100    0.0100    0.0100    0.0100    0.0100    0.0100    0.0100
    0.0100    0.0100    0.0100    0.0100    0.0100    0.0100    0.0100    0.0100
    0.0100    0.0100    0.0100    0.0100    0.0100    0.0100    0.0100    0.0100
    0.0100    0.0100    0.0100    0.0100    0.0100    0.0100    0.0100    0.0100
    0.0100    0.0100    0.0100    0.0100    0.0100    0.0100    0.0100    0.0100
    0.0100    0.0100    0.0100    0.0100    0.0100    0.0100    0.0100    0.0100
    0.0100    0.0100    0.0100    0.0100    0.0100    0.0100    0.0100    0.0100
    0.0100    0.0100    0.0100    0.0100    0.0100    0.0100    0.0100    0.0100
    0.0100    0.0100    0.0100    0.0100    0.0100    0.0100    0.0100    0.0100
    0.0100    0.0100    0.0100    0.0100    0.0100    0.0100    0.0100    0.0100
    0.0100    0.0100    0.0100    0.0100    0.0100    0.0100    0.0100    0.0100
    0.0100    0.0100    0.0100    0.0100    0.0100    0.0100    0.0100    0.0100
    0.0100    0.0100    0.0100    0.0100    0.0100    0.0100    0.0100    0.0100
    0.0100    0.0100    0.0100    0.0100    0.0100    0.0100    0.0100    0.0100
    0.0100    0.0100    0.0100    0.0100    0.0100    0.0100    0.0100    0.0100
    0.0100    0.0100    0.0100    0.0100    0.0100    0.0100    0.0100    0.0100
    0.0100    0.0100    0.0100    0.0100    0.0100    0.0100    0.0100    0.0100
    0.0100    0.0100    0.0100    0.0100    0.0100    0.0100    0.0100    0.0100
    0.0100    0.0100    0.0100    0.0100    0.0100    0.0100    0.0100    0.0100
    0.0100    0.0100    0.0100    0.0100    0.0100    0.0100    0.0100    0.0100
    0.0100    0.0100    0.0100    0.0100    0.0100    0.0100    0.0100    0.0100
    0.0100    0.0100    0.0100    0.0100    0.0100    0.0100    0.0100    0.0100
    0.0100    0.0100    0.0100    0.0100    0.0100    0.0100    0.0100    0.0100
    0.0100    0.0100    0.0100    0.0100    0.0100    0.0100    0.0100    0.0100
    0.0100    0.0100    0.0100    0.0100    0.0100    0.0100    0.0100    0.0100
    0.0100    0.0100    0.0100    0.0100    0.0100    0.0100    0.0100    0.0100
    0.0100    0.0100    0.0100    0.0100    0.0100    0.0100    0.0100    0.0100
    0.0100    0.0100    0.0100    0.0100    0.0100    0.0100    0.0100    0.0100
    0.0100    0.0100    0.0100    0.0100    0.0100    0.0100    0.0100    0.0100
    0.0100    0.0100    0.0100    0.0100    0.0100    0.0100    0.0100    0.0100
    0.0100    0.0100    0.0100    0.0100    0.0100    0.0100    0.0100    0.0100
    0.0100    0.0100    0.0100    0.0100    0.0100    0.0100    0.0100    0.0100
    0.0100    0.0100    0.0100    0.0100    0.0100    0.0100    0.0100    0.0100
    0.0100    0.0100    0.0100    0.0100    0.0100    0.0100    0.0100    0.0100
    0.0100    0.0100    0.0100    0.0100    0.0100    0.0100    0.0100    0.0100
    0.0100    0.0100    0.0100    0.0100    0.0100    0.0100    0.0100    0.0100
    0.0100    0.0100    0.0100    0.0100    0.0100    0.0100    0.0100    0.0100
    0.0100    0.0100    0.0100    0.0100    0.0100    0.0100    0.0100    0.0100
    0.0100    0.0100    0.0100    0.0100    0.0100    0.0100    0.0100    0.0100
    0.0100    0.0100    0.0100    0.0100    0.0100    0.0100    0.0100    0.0100
    0.0100    0.0100    0.0100    0.0100    0.0100    0.0100    0.0100    0.0100
    0.0100    0.0100    0.0100    0.0100    0.0100    0.0100    0.0100    0.0100
    0.0100    0.0100    0.0100    0.0100    0.0100    0.0100    0.0100    0.0100
    0.0100    0.0100    0.0100    0.0100    0.0100    0.0100    0.0100    0.0100
    0.0100    0.0100    0.0100    0.0100    0.0100    0.0100    0.0100    0.0100
    0.0100    0.0100    0.0100    0.0100    0.0100    0.0100    0.0100    0.0100
    0.0100    0.0100    0.0100    0.0100    0.0100    0.0100    0.0100    0.0100
    0.0100    0.0100    0.0100    0.0100    0.0100    0.0100    0.0100    0.0100
    0.0100    0.0100    0.0100    0.0100    0.0100    0.0100    0.0100    0.0100
    0.0100    0.0100    0.0100    0.0100    0.0100    0.0100    0.0100    0.0100
    0.0100    0.0100    0.0100    0.0100    0.0100    0.0100    0.0100    0.0100
    0.0100    0.0100    0.0100    0.0100    0.0100    0.0100    0.0100    0.0100
    0.0100    0.0100    0.0100    0.0100    0.0100    0.0100    0.0100    0.0100
    0.0100    0.0100    0.0100    0.0100    0.0100    0.0100    0.0100    0.0100
    0.0100    0.0100    0.0100    0.0100    0.0100    0.0100    0.0100    0.0100
    0.0100    0.0100    0.0100    0.0100    0.0100    0.0100    0.0100    0.0100
    0.0100    0.0100    0.0100    0.0100    0.0100    0.0100    0.0100    0.0100
    0.0100    0.0100    0.0100    0.0100    0.0100    0.0100    0.0100    0.0100
    0.0100    0.0100    0.0100    0.0100    0.0100    0.0100    0.0100    0.0100
    0.0100    0.0100    0.0100    0.0100    0.0100    0.0100    0.0100    0.0100
    0.0100    0.0100    0.0100    0.0100    0.0100    0.0100    0.0100    0.0100
    0.0100    0.0100    0.0100    0.0100    0.0100    0.0100    0.0100    0.0100
    0.0100    0.0100    0.0100    0.0100    0.0100    0.0100    0.0100    0.0100
    0.0100    0.0100    0.0100    0.0100    0.0100    0.0100    0.0100    0.0100
    0.0100    0.0100    0.0100    0.0100    0.0100    0.0100    0.0100    0.0100
    0.0100    0.0100    0.0100    0.0100    0.0100    0.0100    0.0100    0.0100
    0.0100    0.0100    0.0100    0.0100    0.0100    0.0100    0.0100    0.0100
    0.0100    0.0100    0.0100    0.0100    0.0100    0.0100    0.0100    0.0100
    0.0100    0.0100    0.0100    0.0100    0.0100    0.0100    0.0100    0.0100
    0.0100    0.0100    0.0100    0.0100    0.0100    0.0100    0.0100    0.0100
    0.0100    0.0100    0.0100    0.0100    0.0100    0.0100    0.0100    0.0100
    0.0100    0.0100    0.0100    0.0100    0.0100    0.0100    0.0100    0.0100
    0.0100    0.0100    0.0100    0.0100    0.0100    0.0100    0.0100    0.0100
    0.0100    0.0100    0.0100    0.0100    0.0100    0.0100    0.0100    0.0100
    0.0100    0.0100    0.0100    0.0100    0.0100    0.0100    0.0100    0.0100
    0.0100    0.0100    0.0100    0.0100    0.0100    0.0100    0.0100    0.0100
    0.0100    0.0100    0.0100    0.0100    0.0100    0.0100    0.0100    0.0100
    0.0100    0.0100    0.0100    0.0100    0.0100    0.0100    0.0100    0.0100
    0.0100    0.0100    0.0100    0.0100    0.0100    0.0100    0.0100    0.0100
    0.0100    0.0100    0.0100    0.0100    0.0100    0.0100    0.0100    0.0100
    0.0100    0.0100    0.0100    0.0100    0.0100    0.0100    0.0100    0.0100
    0.0100    0.0100    0.0100    0.0100    0.0100    0.0100    0.0100    0.0100
    0.0100    0.0100    0.0100    0.0100    0.0100    0.0100    0.0100    0.0100
    0.0100    0.0100    0.0100    0.0100    0.0100    0.0100    0.0100    0.0100
    0.0100    0.0100    0.0100    0.0100    0.0100    0.0100    0.0100    0.0100
    0.0100    0.0100    0.0100    0.0100    0.0100    0.0100    0.0100    0.0100
    0.0100    0.0100    0.0100    0.0100    0.0100    0.0100    0.0100    0.0100
    0.0100    0.0100    0.0100    0.0100    0.0100    0.0100    0.0100    0.0100
    0.0100    0.0100    0.0100    0.0100    0.0100    0.0100    0.0100    0.0100
    0.0100    0.0100    0.0100    0.0100    0.0100    0.0100    0.0100    0.0100
    0.0100    0.0100    0.0100    0.0100    0.0100    0.0100    0.0100    0.0100
    0.0100    0.0100    0.0100    0.0100    0.0100    0.0100    0.0100    0.0100
    0.0100    0.0100    0.0100    0.0100    0.0100    0.0100    0.0100    0.0100
    0.0100    0.0100    0.0100    0.0100    0.0100    0.0100    0.0100    0.0100
    0.0100    0.0100    0.0100    0.0100    0.0100    0.0100    0.0100    0.0100
    0.0100    0.0100    0.0100    0.0100    0.0100    0.0100    0.0100    0.0100
    0.0100    0.0100    0.0100    0.0100    0.0100    0.0100    0.0100    0.0100
    0.0100    0.0100    0.0100    0.0100    0.0100    0.0100    0.0100    0.0100
    0.0100    0.0100    0.0100    0.0100    0.0100    0.0100    0.0100    0.0100
    0.0100    0.0100    0.0100    0.0100    0.0100    0.0100    0.0100    0.0100
    0.0100    0.0100    0.0100    0.0100    0.0100    0.0100    0.0100    0.0100
    0.0100    0.0100    0.0100    0.0100    0.0100    0.0100    0.0100    0.0100
    0.0100    0.0100    0.0100    0.0100    0.0100    0.0100    0.0100    0.0100
    0.0100    0.0100    0.0100    0.0100    0.0100    0.0100    0.0100    0.0100
    0.0100    0.0100    0.0100    0.0100    0.0100    0.0100    0.0100    0.0100
    0.0100    0.0100    0.0100    0.0100    0.0100    0.0100    0.0100    0.0100
    0.0100    0.0100    0.0100    0.0100    0.0100    0.0100    0.0100    0.0100
    0.0100    0.0100    0.0100    0.0100    0.0100    0.0100    0.0100    0.0100
    0.0100    0.0100    0.0100    0.0100    0.0100    0.0100    0.0100    0.0100
    0.0100    0.0100    0.0100    0.0100    0.0100    0.0100    0.0100    0.0100
    0.0100    0.0100    0.0100    0.0100    0.0100    0.0100    0.0100    0.0100
    0.0100    0.0100    0.0100    0.0100    0.0100    0.0100    0.0100    0.0100
    0.0100    0.0100    0.0100    0.0100    0.0100    0.0100    0.0100    0.0100
    0.0100    0.0100    0.0100    0.0100    0.0100    0.0100    0.0100    0.0100
    0.0100    0.0100    0.0100    0.0100    0.0100    0.0100    0.0100    0.0100
    0.0100    0.0100    0.0100    0.0100    0.0100    0.0100    0.0100    0.0100
    0.0100    0.0100    0.0100    0.0100    0.0100    0.0100    0.0100    0.0100
    0.0100    0.0100    0.0100    0.0100    0.0100    0.0100    0.0100    0.0100
    0.0100    0.0100    0.0100    0.0100    0.0100    0.0100    0.0100    0.0100
    0.0100    0.0100    0.0100    0.0100    0.0100    0.0100    0.0100    0.0100
    0.0100    0.0100    0.0100    0.0100    0.0100    0.0100    0.0100    0.0100
    0.0100    0.0100    0.0100    0.0100    0.0100    0.0100    0.0100    0.0100
    0.0100    0.0100    0.0100    0.0100    0.0100    0.0100    0.0100    0.0100
    0.0100    0.0100    0.0100    0.0100    0.0100    0.0100    0.0100    0.0100
    0.0100    0.0100    0.0100    0.0100    0.0100    0.0100    0.0100    0.0100
    0.0100    0.0100    0.0100    0.0100    0.0100    0.0100    0.0100    0.0100
    0.0100    0.0100    0.0100    0.0100    0.0100    0.0100    0.0100    0.0100
    0.0100    0.0100    0.0100    0.0100    0.0100    0.0100    0.0100    0.0100
    0.0100    0.0100    0.0100    0.0100    0.0100    0.0100    0.0100    0.0100
    0.0100    0.0100    0.0100    0.0100    0.0100    0.0100    0.0100    0.0100
    0.0100    0.0100    0.0100    0.0100    0.0100    0.0100    0.0100    0.0100
    0.0100    0.0100    0.0100    0.0100    0.0100    0.0100    0.0100    0.0100
    0.0100    0.0100    0.0100    0.0100    0.0100    0.0100    0.0100    0.0100
    0.0100    0.0100    0.0100    0.0100    0.0100    0.0100    0.0100    0.0100
    0.0100    0.0100    0.0100    0.0100    0.0100    0.0100    0.0100    0.0100
    0.0100    0.0100    0.0100    0.0100    0.0100    0.0100    0.0100    0.0100
    0.0100    0.0100    0.0100    0.0100    0.0100    0.0100    0.0100    0.0100
    0.0100    0.0100    0.0100    0.0100    0.0100    0.0100    0.0100    0.0100
    0.0100    0.0100    0.0100    0.0100    0.0100    0.0100    0.0100    0.0100
    0.0100    0.0100    0.0100    0.0100    0.0100    0.0100    0.0100    0.0100
    0.0100    0.0100    0.0100    0.0100    0.0100    0.0100    0.0100    0.0100
    0.0100    0.0100    0.0100    0.0100    0.0100    0.0100    0.0100    0.0100
    0.0100    0.0100    0.0100    0.0100    0.0100    0.0100    0.0100    0.0100
    0.0100    0.0100    0.0100    0.0100    0.0100    0.0100    0.0100    0.0100
    0.0100    0.0100    0.0100    0.0100    0.0100    0.0100    0.0100    0.0100
    0.0100    0.0100    0.0100    0.0100    0.0100    0.0100    0.0100    0.0100
    0.0100    0.0100    0.0100    0.0100    0.0100    0.0100    0.0100    0.0100
    0.0100    0.0100    0.0100    0.0100    0.0100    0.0100    0.0100    0.0100
    0.0100    0.0100    0.0100    0.0100    0.0100    0.0100    0.0100    0.0100
    0.0100    0.0100    0.0100    0.0100    0.0100    0.0100    0.0100    0.0100
    0.0100    0.0100    0.0100    0.0100    0.0100    0.0100    0.0100    0.0100
    0.0100    0.0100    0.0100    0.0100    0.0100    0.0100    0.0100    0.0100
    0.0100    0.0100    0.0100    0.0100    0.0100    0.0100    0.0100    0.0100
    0.0100    0.0100    0.0100    0.0100    0.0100    0.0100    0.0100    0.0100
    0.0100    0.0100    0.0100    0.0100    0.0100    0.0100    0.0100    0.0100
    0.0100    0.0100    0.0100    0.0100    0.0100    0.0100    0.0100    0.0100
    0.0100    0.0100    0.0100    0.0100    0.0100    0.0100    0.0100    0.0100
    0.0100    0.0100    0.0100    0.0100    0.0100    0.0100    0.0100    0.0100
    0.0100    0.0100    0.0100    0.0100    0.0100    0.0100    0.0100    0.0100
    0.0100    0.0100    0.0100    0.0100    0.0100    0.0100    0.0100    0.0100
    0.0100    0.0100    0.0100    0.0100    0.0100    0.0100    0.0100    0.0100
    0.0100    0.0100    0.0100    0.0100    0.0100    0.0100    0.0100    0.0100
    0.0100    0.0100    0.0100    0.0100    0.0100    0.0100    0.0100    0.0100
    0.0100    0.0100    0.0100    0.0100    0.0100    0.0100    0.0100    0.0100
    0.0100    0.0100    0.0100    0.0100    0.0100    0.0100    0.0100    0.0100
    0.0100    0.0100    0.0100    0.0100    0.0100    0.0100    0.0100    0.0100
    0.0100    0.0100    0.0100    0.0100    0.0100    0.0100    0.0100    0.0100
    0.0100    0.0100    0.0100    0.0100    0.0100    0.0100    0.0100    0.0100
    0.0100    0.0100    0.0100    0.0100    0.0100    0.0100    0.0100    0.0100
    0.0100    0.0100    0.0100    0.0100    0.0100    0.0100    0.0100    0.0100
    0.0100    0.0100    0.0100    0.0100    0.0100    0.0100    0.0100    0.0100
    0.0100    0.0100    0.0100    0.0100    0.0100    0.0100    0.0100    0.0100
    0.0100    0.0100    0.0100    0.0100    0.0100    0.0100    0.0100    0.0100
    0.0100    0.0100    0.0100    0.0100    0.0100    0.0100    0.0100    0.0100
    0.0100    0.0100    0.0100    0.0100    0.0100    0.0100    0.0100    0.0100
    0.0100    0.0100    0.0100    0.0100    0.0100    0.0100    0.0100    0.0100
    0.0100    0.0100    0.0100    0.0100    0.0100    0.0100    0.0100    0.0100
    0.0100    0.0100    0.0100    0.0100    0.0100    0.0100    0.0100    0.0100
    0.0100    0.0100    0.0100    0.0100    0.0100    0.0100    0.0100    0.0100
    0.0100    0.0100    0.0100    0.0100    0.0100    0.0100    0.0100    0.0100
    0.0100    0.0100    0.0100    0.0100    0.0100    0.0100    0.0100    0.0100
    0.0100    0.0100    0.0100    0.0100    0.0100    0.0100    0.0100    0.0100
    0.0100    0.0100    0.0100    0.0100    0.0100    0.0100    0.0100    0.0100
    0.0100    0.0100    0.0100    0.0100    0.0100    0.0100    0.0100    0.0100
    0.0100    0.0100    0.0100    0.0100    0.0100    0.0100    0.0100    0.0100
    0.0100    0.0100    0.0100    0.0100    0.0100    0.0100    0.0100    0.0100
    0.0100    0.0100    0.0100    0.0100    0.0100    0.0100    0.0100    0.0100
    0.0100    0.0100    0.0100    0.0100    0.0100    0.0100    0.0100    0.0100
    0.0100    0.0100    0.0100    0.0100    0.0100    0.0100    0.0100    0.0100
    0.0100    0.0100    0.0100    0.0100    0.0100    0.0100    0.0100    0.0100
    0.0100    0.0100    0.0100    0.0100    0.0100    0.0100    0.0100    0.0100
    0.0100    0.0100    0.0100    0.0100    0.0100    0.0100    0.0100    0.0100
    0.0100    0.0100    0.0100    0.0100    0.0100    0.0100    0.0100    0.0100
    0.0100    0.0100    0.0100    0.0100    0.0100    0.0100    0.0100    0.0100
    0.0100    0.0100    0.0100    0.0100    0.0100    0.0100    0.0100    0.0100
    0.0100    0.0100    0.0100    0.0100    0.0100    0.0100    0.0100    0.0100
    0.0100    0.0100    0.0100    0.0100    0.0100    0.0100    0.0100    0.0100
    0.0100    0.0100    0.0100    0.0100    0.0100    0.0100    0.0100    0.0100
    0.0100    0.0100    0.0100    0.0100    0.0100    0.0100    0.0100    0.0100
    0.0100    0.0100    0.0100    0.0100    0.0100    0.0100    0.0100    0.0100
    0.0100    0.0100    0.0100    0.0100    0.0100    0.0100    0.0100    0.0100
    0.0100    0.0100    0.0100    0.0100    0.0100    0.0100    0.0100    0.0100
    0.0100    0.0100    0.0100    0.0100    0.0100    0.0100    0.0100    0.0100
    0.0100    0.0100    0.0100    0.0100    0.0100    0.0100    0.0100    0.0100
    0.0100    0.0100    0.0100    0.0100    0.0100    0.0100    0.0100    0.0100
    0.0100    0.0100    0.0100    0.0100    0.0100    0.0100    0.0100    0.0100
    0.0100    0.0100    0.0100    0.0100    0.0100    0.0100    0.0100    0.0100
    0.0100    0.0100    0.0100    0.0100    0.0100    0.0100    0.0100    0.0100
    0.0100    0.0100    0.0100    0.0100    0.0100    0.0100    0.0100    0.0100
    0.0100    0.0100    0.0100    0.0100    0.0100    0.0100    0.0100    0.0100
    0.0100    0.0100    0.0100    0.0100    0.0100    0.0100    0.0100    0.0100
    0.0100    0.0100    0.0100    0.0100    0.0100    0.0100    0.0100    0.0100
    0.0100    0.0100    0.0100    0.0100    0.0100    0.0100    0.0100    0.0100
    0.0100    0.0100    0.0100    0.0100    0.0100    0.0100    0.0100    0.0100
    0.0100    0.0100    0.0100    0.0100    0.0100    0.0100    0.0100    0.0100
    0.0100    0.0100    0.0100    0.0100    0.0100    0.0100    0.0100    0.0100
    0.0100    0.0100    0.0100    0.0100    0.0100    0.0100    0.0100    0.0100
    0.0100    0.0100    0.0100    0.0100    0.0100    0.0100    0.0100    0.0100
    0.0100    0.0100    0.0100    0.0100    0.0100    0.0100    0.0100    0.0100
    0.0100    0.0100    0.0100    0.0100    0.0100    0.0100    0.0100    0.0100
    0.0100    0.0100    0.0100    0.0100    0.0100    0.0100    0.0100    0.0100
    0.0100    0.0100    0.0100    0.0100    0.0100    0.0100    0.0100    0.0100
    0.0100    0.0100    0.0100    0.0100    0.0100    0.0100    0.0100    0.0100
    0.0100    0.0100    0.0100    0.0100    0.0100    0.0100    0.0100    0.0100
    0.0100    0.0100    0.0100    0.0100    0.0100    0.0100    0.0100    0.0100
    0.0100    0.0100    0.0100    0.0100    0.0100    0.0100    0.0100    0.0100
    0.0100    0.0100    0.0100    0.0100    0.0100    0.0100    0.0100    0.0100
    0.0100    0.0100    0.0100    0.0100    0.0100    0.0100    0.0100    0.0100
    0.0100    0.0100    0.0100    0.0100    0.0100    0.0100    0.0100    0.0100
    0.0100    0.0100    0.0100    0.0100    0.0100    0.0100    0.0100    0.0100
    0.0100    0.0100    0.0100    0.0100    0.0100    0.0100    0.0100    0.0100
    0.0100    0.0100    0.0100    0.0100    0.0100    0.0100    0.0100    0.0100
    0.0100    0.0100    0.0100    0.0100    0.0100    0.0100    0.0100    0.0100
    0.0100    0.0100    0.0100    0.0100    0.0100    0.0100    0.0100    0.0100
    0.0100    0.0100    0.0100    0.0100    0.0100    0.0100    0.0100    0.0100
    0.0100    0.0100    0.0100    0.0100    0.0100    0.0100    0.0100    0.0100
    0.0100    0.0100    0.0100    0.0100    0.0100    0.0100    0.0100    0.0100
    0.0100    0.0100    0.0100    0.0100    0.0100    0.0100    0.0100    0.0100
    0.0100    0.0100    0.0100    0.0100    0.0100    0.0100    0.0100    0.0100
    0.0100    0.0100    0.0100    0.0100    0.0100    0.0100    0.0100    0.0100
    0.0100    0.0100    0.0100    0.0100    0.0100    0.0100    0.0100    0.0100
    0.0100    0.0100    0.0100    0.0100    0.0100    0.0100    0.0100    0.0100
    0.0100    0.0100    0.0100    0.0100    0.0100    0.0100    0.0100    0.0100
    0.0100    0.0100    0.0100    0.0100    0.0100    0.0100    0.0100    0.0100
    0.0100    0.0100    0.0100    0.0100    0.0100    0.0100    0.0100    0.0100
    0.0100    0.0100    0.0100    0.0100    0.0100    0.0100    0.0100    0.0100
    0.0100    0.0100    0.0100    0.0100    0.0100    0.0100    0.0100    0.0100
    0.0100    0.0100    0.0100    0.0100    0.0100    0.0100    0.0100    0.0100
    0.0100    0.0100    0.0100    0.0100    0.0100    0.0100    0.0100    0.0100
    0.0100    0.0100    0.0100    0.0100    0.0100    0.0100    0.0100    0.0100
    0.0100    0.0100    0.0100    0.0100    0.0100    0.0100    0.0100    0.0100
    0.0100    0.0100    0.0100    0.0100    0.0100    0.0100    0.0100    0.0100
    0.0100    0.0100    0.0100    0.0100    0.0100    0.0100    0.0100    0.0100
    0.0100    0.0100    0.0100    0.0100    0.0100    0.0100    0.0100    0.0100
    0.0100    0.0100    0.0100    0.0100    0.0100    0.0100    0.0100    0.0100
    0.0100    0.0100    0.0100    0.0100    0.0100    0.0100    0.0100    0.0100
    0.0100    0.0100    0.0100    0.0100    0.0100    0.0100    0.0100    0.0100
    0.0100    0.0100    0.0100    0.0100    0.0100    0.0100    0.0100    0.0100
    0.0100    0.0100    0.0100    0.0100    0.0100    0.0100    0.0100    0.0100
    0.0100    0.0100    0.0100    0.0100    0.0100    0.0100    0.0100    0.0100
    0.0100    0.0100    0.0100    0.0100    0.0100    0.0100    0.0100    0.0100
    0.0100    0.0100    0.0100    0.0100    0.0100    0.0100    0.0100    0.0100
    0.0100    0.0100    0.0100    0.0100    0.0100    0.0100    0.0100    0.0100
    0.0100    0.0100    0.0100    0.0100    0.0100    0.0100    0.0100    0.0100
    0.0100    0.0100    0.0100    0.0100    0.0100    0.0100    0.0100    0.0100
    0.0100    0.0100    0.0100    0.0100    0.0100    0.0100    0.0100    0.0100
    0.0100    0.0100    0.0100    0.0100    0.0100    0.0100    0.0100    0.0100
    0.0100    0.0100    0.0100    0.0100    0.0100    0.0100    0.0100    0.0100
    0.0100    0.0100    0.0100    0.0100    0.0100    0.0100    0.0100    0.0100
    0.0100    0.0100    0.0100    0.0100    0.0100    0.0100    0.0100    0.0100
    0.0100    0.0100    0.0100    0.0100    0.0100    0.0100    0.0100    0.0100
    0.0100    0.0100    0.0100    0.0100    0.0100    0.0100    0.0100    0.0100
    0.0100    0.0100    0.0100    0.0100    0.0100    0.0100    0.0100    0.0100
    0.0100    0.0100    0.0100    0.0100    0.0100    0.0100    0.0100    0.0100
    0.0100    0.0100    0.0100    0.0100    0.0100    0.0100    0.0100    0.0100
    0.0100    0.0100    0.0100    0.0100    0.0100    0.0100    0.0100    0.0100
    0.0100    0.0100    0.0100    0.0100    0.0100    0.0100    0.0100    0.0100
    0.0100    0.0100    0.0100    0.0100    0.0100    0.0100    0.0100    0.0100
    0.0100    0.0100    0.0100    0.0100    0.0100    0.0100    0.0100    0.0100
    0.0100    0.0100    0.0100    0.0100    0.0100    0.0100    0.0100    0.0100
    0.0100    0.0100    0.0100    0.0100    0.0100    0.0100    0.0100    0.0100
    0.0100    0.0100    0.0100    0.0100    0.0100    0.0100    0.0100    0.0100
    0.0100    0.0100    0.0100    0.0100    0.0100    0.0100    0.0100    0.0100
    0.0100    0.0100    0.0100    0.0100    0.0100    0.0100    0.0100    0.0100
    0.0100    0.0100    0.0100    0.0100    0.0100    0.0100    0.0100    0.0100
    0.0100    0.0100    0.0100    0.0100    0.0100    0.0100    0.0100    0.0100
    0.0100    0.0100    0.0100    0.0100    0.0100    0.0100    0.0100    0.0100
    0.0100    0.0100    0.0100    0.0100    0.0100    0.0100    0.0100    0.0100
    0.0100    0.0100    0.0100    0.0100    0.0100    0.0100    0.0100    0.0100
    0.0100    0.0100    0.0100    0.0100    0.0100    0.0100    0.0100    0.0100
    0.0100    0.0100    0.0100    0.0100    0.0100    0.0100    0.0100    0.0100
    0.0100    0.0100    0.0100    0.0100    0.0100    0.0100    0.0100    0.0100
    0.0100    0.0100    0.0100    0.0100    0.0100    0.0100    0.0100    0.0100
    0.0100    0.0100    0.0100    0.0100    0.0100    0.0100    0.0100    0.0100
    0.0100    0.0100    0.0100    0.0100    0.0100    0.0100    0.0100    0.0100
    0.0100    0.0100    0.0100    0.0100    0.0100    0.0100    0.0100    0.0100
    0.0100    0.0100    0.0100    0.0100    0.0100    0.0100    0.0100    0.0100
    0.0100    0.0100    0.0100    0.0100    0.0100    0.0100    0.0100    0.0100
    0.0100    0.0100    0.0100    0.0100    0.0100    0.0100    0.0100    0.0100
    0.0100    0.0100    0.0100    0.0100    0.0100    0.0100    0.0100    0.0100
    0.0100    0.0100    0.0100    0.0100    0.0100    0.0100    0.0100    0.0100
    0.0100    0.0100    0.0100    0.0100    0.0100    0.0100    0.0100    0.0100
    0.0100    0.0100    0.0100    0.0100    0.0100    0.0100    0.0100    0.0100
    0.0100    0.0100    0.0100    0.0100    0.0100    0.0100    0.0100    0.0100
    0.0100    0.0100    0.0100    0.0100    0.0100    0.0100    0.0100    0.0100
    0.0100    0.0100    0.0100    0.0100    0.0100    0.0100    0.0100    0.0100
    0.0100    0.0100    0.0100    0.0100    0.0100    0.0100    0.0100    0.0100
    0.0100    0.0100    0.0100    0.0100    0.0100    0.0100    0.0100    0.0100
    0.0100    0.0100    0.0100    0.0100    0.0100    0.0100    0.0100    0.0100
    0.0100    0.0100    0.0100    0.0100    0.0100    0.0100    0.0100    0.0100
    0.0100    0.0100    0.0100    0.0100    0.0100    0.0100    0.0100    0.0100
    0.0100    0.0100    0.0100    0.0100    0.0100    0.0100    0.0100    0.0100
    0.0100    0.0100    0.0100    0.0100    0.0100    0.0100    0.0100    0.0100
    0.0100    0.0100    0.0100    0.0100    0.0100    0.0100    0.0100    0.0100
    0.0100    0.0100    0.0100    0.0100    0.0100    0.0100    0.0100    0.0100
    0.0100    0.0100    0.0100    0.0100    0.0100    0.0100    0.0100    0.0100
    0.0100    0.0100    0.0100    0.0100    0.0100    0.0100    0.0100    0.0100
    0.0100    0.0100    0.0100    0.0100    0.0100    0.0100    0.0100    0.0100
    0.0100    0.0100    0.0100    0.0100    0.0100    0.0100    0.0100    0.0100
    0.0100    0.0100    0.0100    0.0100    0.0100    0.0100    0.0100    0.0100
    0.0100    0.0100    0.0100    0.0100    0.0100    0.0100    0.0100    0.0100
    0.0100    0.0100    0.0100    0.0100    0.0100    0.0100    0.0100    0.0100
    0.0100    0.0100    0.0100    0.0100    0.0100    0.0100    0.0100    0.0100
    0.0100    0.0100    0.0100    0.0100    0.0100    0.0100    0.0100    0.0100
    0.0100    0.0100    0.0100    0.0100    0.0100    0.0100    0.0100    0.0100
    0.0100    0.0100    0.0100    0.0100    0.0100    0.0100    0.0100    0.0100
    0.0100    0.0100    0.0100    0.0100    0.0100    0.0100    0.0100    0.0100
    0.0100    0.0100    0.0100    0.0100    0.0100    0.0100    0.0100    0.0100
    0.0100    0.0100    0.0100    0.0100    0.0100    0.0100    0.0100    0.0100
    0.0100    0.0100    0.0100    0.0100    0.0100    0.0100    0.0100    0.0100
    0.0100    0.0100    0.0100    0.0100    0.0100    0.0100    0.0100    0.0100
    0.0100    0.0100    0.0100    0.0100    0.0100    0.0100    0.0100    0.0100
    0.0100    0.0100    0.0100    0.0100    0.0100    0.0100    0.0100    0.0100
    0.0100    0.0100    0.0100    0.0100    0.0100    0.0100    0.0100    0.0100
    0.0100    0.0100    0.0100    0.0100    0.0100    0.0100    0.0100    0.0100
    0.0100    0.0100    0.0100    0.0100    0.0100    0.0100    0.0100    0.0100
    0.0100    0.0100    0.0100    0.0100    0.0100    0.0100    0.0100    0.0100
    0.0100    0.0100    0.0100    0.0100    0.0100    0.0100    0.0100    0.0100
    0.0100    0.0100    0.0100    0.0100    0.0100    0.0100    0.0100    0.0100
    0.0100    0.0100    0.0100    0.0100    0.0100    0.0100    0.0100    0.0100
    0.0100    0.0100    0.0100    0.0100    0.0100    0.0100    0.0100    0.0100
    0.0100    0.0100    0.0100    0.0100    0.0100    0.0100    0.0100    0.0100
    0.0100    0.0100    0.0100    0.0100    0.0100    0.0100    0.0100    0.0100
    0.0100    0.0100    0.0100    0.0100    0.0100    0.0100    0.0100    0.0100
    0.0100    0.0100    0.0100    0.0100    0.0100    0.0100    0.0100    0.0100
    0.0100    0.0100    0.0100    0.0100    0.0100    0.0100    0.0100    0.0100
    0.0100    0.0100    0.0100    0.0100    0.0100    0.0100    0.0100    0.0100
    0.0100    0.0100    0.0100    0.0100    0.0100    0.0100    0.0100    0.0100
    0.0100    0.0100    0.0100    0.0100    0.0100    0.0100    0.0100    0.0100
    0.0100    0.0100    0.0100    0.0100    0.0100    0.0100    0.0100    0.0100
    0.0100    0.0100    0.0100    0.0100    0.0100    0.0100    0.0100    0.0100
    0.0100    0.0100    0.0100    0.0100    0.0100    0.0100    0.0100    0.0100
    0.0100    0.0100    0.0100    0.0100    0.0100    0.0100    0.0100    0.0100
    0.0100    0.0100    0.0100    0.0100    0.0100    0.0100    0.0100    0.0100
    0.0100    0.0100    0.0100    0.0100    0.0100    0.0100    0.0100    0.0100
    0.0100    0.0100    0.0100    0.0100    0.0100    0.0100    0.0100    0.0100
    0.0100    0.0100    0.0100    0.0100    0.0100    0.0100    0.0100    0.0100
    0.0100    0.0100    0.0100    0.0100    0.0100    0.0100    0.0100    0.0100
    0.0100    0.0100    0.0100    0.0100    0.0100    0.0100    0.0100    0.0100
    0.0100    0.0100    0.0100    0.0100    0.0100    0.0100    0.0100    0.0100
    0.0100    0.0100    0.0100    0.0100    0.0100    0.0100    0.0100    0.0100
    0.0100    0.0100    0.0100    0.0100    0.0100    0.0100    0.0100    0.0100
    0.0100    0.0100    0.0100    0.0100    0.0100    0.0100    0.0100    0.0100
    0.0100    0.0100    0.0100    0.0100    0.0100    0.0100    0.0100    0.0100
    0.0100    0.0100    0.0100    0.0100    0.0100    0.0100    0.0100    0.0100
    0.0100    0.0100    0.0100    0.0100    0.0100    0.0100    0.0100    0.0100
    0.0100    0.0100    0.0100    0.0100    0.0100    0.0100    0.0100    0.0100
    0.0100    0.0100    0.0100    0.0100    0.0100    0.0100    0.0100    0.0100
    0.0100    0.0100    0.0100    0.0100    0.0100    0.0100    0.0100    0.0100
    0.0100    0.0100    0.0100    0.0100    0.0100    0.0100    0.0100    0.0100
    0.0100    0.0100    0.0100    0.0100    0.0100    0.0100    0.0100    0.0100
    0.0100    0.0100    0.0100    0.0100    0.0100    0.0100    0.0100    0.0100
    0.0100    0.0100    0.0100    0.0100    0.0100    0.0100    0.0100    0.0100
    0.0100    0.0100    0.0100    0.0100    0.0100    0.0100    0.0100    0.0100
    0.0100    0.0100    0.0100    0.0100    0.0100    0.0100    0.0100    0.0100
    0.0100    0.0100    0.0100    0.0100    0.0100    0.0100    0.0100    0.0100
    0.0100    0.0100    0.0100    0.0100    0.0100    0.0100    0.0100    0.0100
    0.0100    0.0100    0.0100    0.0100    0.0100    0.0100    0.0100    0.0100
    0.0100    0.0100    0.0100    0.0100    0.0100    0.0100    0.0100    0.0100
    0.0100    0.0100    0.0100    0.0100    0.0100    0.0100    0.0100    0.0100
    0.0100    0.0100    0.0100    0.0100    0.0100    0.0100    0.0100    0.0100
    0.0100    0.0100    0.0100    0.0100    0.0100    0.0100    0.0100    0.0100
    0.0100    0.0100    0.0100    0.0100    0.0100    0.0100    0.0100    0.0100
    0.0100    0.0100    0.0100    0.0100    0.0100    0.0100    0.0100    0.0100
    0.0100    0.0100    0.0100    0.0100    0.0100    0.0100    0.0100    0.0100
    0.0100    0.0100    0.0100    0.0100    0.0100    0.0100    0.0100    0.0100
    0.0100    0.0100    0.0100    0.0100    0.0100    0.0100    0.0100    0.0100
    0.0100    0.0100    0.0100    0.0100    0.0100    0.0100    0.0100    0.0100
    0.0100    0.0100    0.0100    0.0100    0.0100    0.0100    0.0100    0.0100
    0.0100    0.0100    0.0100    0.0100    0.0100    0.0100    0.0100    0.0100
    0.0100    0.0100    0.0100    0.0100    0.0100    0.0100    0.0100    0.0100
    0.0100    0.0100    0.0100    0.0100    0.0100    0.0100    0.0100    0.0100
    0.0100    0.0100    0.0100    0.0100    0.0100    0.0100    0.0100    0.0100
    0.0100    0.0100    0.0100    0.0100    0.0100    0.0100    0.0100    0.0100
    0.0100    0.0100    0.0100    0.0100    0.0100    0.0100    0.0100    0.0100
    0.0100    0.0100    0.0100    0.0100    0.0100    0.0100    0.0100    0.0100
    0.0100    0.0100    0.0100    0.0100    0.0100    0.0100    0.0100    0.0100
    0.0100    0.0100    0.0100    0.0100    0.0100    0.0100    0.0100    0.0100
    0.0100    0.0100    0.0100    0.0100    0.0100    0.0100    0.0100    0.0100
    0.0100    0.0100    0.0100    0.0100    0.0100    0.0100    0.0100    0.0100
    0.0100    0.0100    0.0100    0.0100    0.0100    0.0100    0.0100    0.0100
    0.0100    0.0100    0.0100    0.0100    0.0100    0.0100    0.0100    0.0100
    0.0100    0.0100    0.0100    0.0100    0.0100    0.0100    0.0100    0.0100
    0.0100    0.0100    0.0100    0.0100    0.0100    0.0100    0.0100    0.0100
    0.0100    0.0100    0.0100    0.0100    0.0100    0.0100    0.0100    0.0100
    0.0100    0.0100    0.0100    0.0100    0.0100    0.0100    0.0100    0.0100
    0.0100    0.0100    0.0100    0.0100    0.0100    0.0100    0.0100    0.0100
    0.0100    0.0100    0.0100    0.0100    0.0100    0.0100    0.0100    0.0100
    0.0100    0.0100    0.0100    0.0100    0.0100    0.0100    0.0100    0.0100
    0.0100    0.0100    0.0100    0.0100    0.0100    0.0100    0.0100    0.0100
    0.0100    0.0100    0.0100    0.0100    0.0100    0.0100    0.0100    0.0100
    0.0100    0.0100    0.0100    0.0100    0.0100    0.0100    0.0100    0.0100
    0.0100    0.0100    0.0100    0.0100    0.0100    0.0100    0.0100    0.0100
    0.0100    0.0100    0.0100    0.0100    0.0100    0.0100    0.0100    0.0100
    0.0100    0.0100    0.0100    0.0100    0.0100    0.0100    0.0100    0.0100
    0.0100    0.0100    0.0100    0.0100    0.0100    0.0100    0.0100    0.0100
    0.0100    0.0100    0.0100    0.0100    0.0100    0.0100    0.0100    0.0100
    0.0100    0.0100    0.0100    0.0100    0.0100    0.0100    0.0100    0.0100
    0.0100    0.0100    0.0100    0.0100    0.0100    0.0100    0.0100    0.0100
    0.0100    0.0100    0.0100    0.0100    0.0100    0.0100    0.0100    0.0100
    0.0100    0.0100    0.0100    0.0100    0.0100    0.0100    0.0100    0.0100
    0.0100    0.0100    0.0100    0.0100    0.0100    0.0100    0.0100    0.0100
    0.0100    0.0100    0.0100    0.0100    0.0100    0.0100    0.0100    0.0100
    0.0100    0.0100    0.0100    0.0100    0.0100    0.0100    0.0100    0.0100
    0.0100    0.0100    0.0100    0.0100    0.0100    0.0100    0.0100    0.0100
    0.0100    0.0100    0.0100    0.0100    0.0100    0.0100    0.0100    0.0100
    0.0100    0.0100    0.0100    0.0100    0.0100    0.0100    0.0100    0.0100
    0.0100    0.0100    0.0100    0.0100    0.0100    0.0100    0.0100    0.0100
    0.0100    0.0100    0.0100    0.0100    0.0100    0.0100    0.0100    0.0100
    0.0100    0.0100    0.0100    0.0100    0.0100    0.0100    0.0100    0.0100
    0.0100    0.0100    0.0100    0.0100    0.0100    0.0100    0.0100    0.0100
    0.0100    0.0100    0.0100    0.0100    0.0100    0.0100    0.0100    0.0100
    0.0100    0.0100    0.0100    0.0100    0.0100    0.0100    0.0100    0.0100
    0.0100    0.0100    0.0100    0.0100    0.0100    0.0100    0.0100    0.0100
    0.0100    0.0100    0.0100    0.0100    0.0100    0.0100    0.0100    0.0100
    0.0100    0.0100    0.0100    0.0100    0.0100    0.0100    0.0100    0.0100
    0.0100    0.0100    0.0100    0.0100    0.0100    0.0100    0.0100    0.0100
    0.0100    0.0100    0.0100    0.0100    0.0100    0.0100    0.0100    0.0100
    0.0100    0.0100    0.0100    0.0100    0.0100    0.0100    0.0100    0.0100
    0.0100    0.0100    0.0100    0.0100    0.0100    0.0100    0.0100    0.0100
    0.0100    0.0100    0.0100    0.0100    0.0100    0.0100    0.0100    0.0100
    0.0100    0.0100    0.0100    0.0100    0.0100    0.0100    0.0100    0.0100
    0.0100    0.0100    0.0100    0.0100    0.0100    0.0100    0.0100    0.0100
    0.0100    0.0100    0.0100    0.0100    0.0100    0.0100    0.0100    0.0100
    0.0100    0.0100    0.0100    0.0100    0.0100    0.0100    0.0100    0.0100
    0.0100    0.0100    0.0100    0.0100    0.0100    0.0100    0.0100    0.0100
    0.0100    0.0100    0.0100    0.0100    0.0100    0.0100    0.0100    0.0100
    0.0100    0.0100    0.0100    0.0100    0.0100    0.0100    0.0100    0.0100
    0.0100    0.0100    0.0100    0.0100    0.0100    0.0100    0.0100    0.0100
    0.0100    0.0100    0.0100    0.0100    0.0100    0.0100    0.0100    0.0100
    0.0100    0.0100    0.0100    0.0100    0.0100    0.0100    0.0100    0.0100
    0.0100    0.0100    0.0100    0.0100    0.0100    0.0100    0.0100    0.0100
    0.0100    0.0100    0.0100    0.0100    0.0100    0.0100    0.0100    0.0100
    0.0100    0.0100    0.0100    0.0100    0.0100    0.0100    0.0100    0.0100
    0.0100    0.0100    0.0100    0.0100    0.0100    0.0100    0.0100    0.0100
    0.0100    0.0100    0.0100    0.0100    0.0100    0.0100    0.0100    0.0100
    0.0100    0.0100    0.0100    0.0100    0.0100    0.0100    0.0100    0.0100
    0.0100    0.0100    0.0100    0.0100    0.0100    0.0100    0.0100    0.0100
    0.0100    0.0100    0.0100    0.0100    0.0100    0.0100    0.0100    0.0100
    0.0100    0.0100    0.0100    0.0100    0.0100    0.0100    0.0100    0.0100
    0.0100    0.0100    0.0100    0.0100    0.0100    0.0100    0.0100    0.0100
    0.0100    0.0100    0.0100    0.0100    0.0100    0.0100    0.0100    0.0100
    0.0100    0.0100    0.0100    0.0100    0.0100    0.0100    0.0100    0.0100
    0.0100    0.0100    0.0100    0.0100    0.0100    0.0100    0.0100    0.0100
    0.0100    0.0100    0.0100    0.0100    0.0100    0.0100    0.0100    0.0100
    0.0100    0.0100    0.0100    0.0100    0.0100    0.0100    0.0100    0.0100
    0.0100    0.0100    0.0100    0.0100    0.0100    0.0100    0.0100    0.0100
    0.0100    0.0100    0.0100    0.0100    0.0100    0.0100    0.0100    0.0100
    0.0100    0.0100    0.0100    0.0100    0.0100    0.0100    0.0100    0.0100
    0.0100    0.0100    0.0100    0.0100    0.0100    0.0100    0.0100    0.0100
    0.0100    0.0100    0.0100    0.0100    0.0100    0.0100    0.0100    0.0100
    0.0100    0.0100    0.0100    0.0100    0.0100    0.0100    0.0100    0.0100
    0.0100    0.0100    0.0100    0.0100    0.0100    0.0100    0.0100    0.0100
    0.0100    0.0100    0.0100    0.0100    0.0100    0.0100    0.0100    0.0100
    0.0100    0.0100    0.0100    0.0100    0.0100    0.0100    0.0100    0.0100
    0.0100    0.0100    0.0100    0.0100    0.0100    0.0100    0.0100    0.0100
    0.0100    0.0100    0.0100    0.0100    0.0100    0.0100    0.0100    0.0100
    0.0100    0.0100    0.0100    0.0100    0.0100    0.0100    0.0100    0.0100
    0.0100    0.0100    0.0100    0.0100    0.0100    0.0100    0.0100    0.0100
    0.0100    0.0100    0.0100    0.0100    0.0100    0.0100    0.0100    0.0100
    0.0100    0.0100    0.0100    0.0100    0.0100    0.0100    0.0100    0.0100
    0.0100    0.0100    0.0100    0.0100    0.0100    0.0100    0.0100    0.0100
    0.0100    0.0100    0.0100    0.0100    0.0100    0.0100    0.0100    0.0100
    0.0100    0.0100    0.0100    0.0100    0.0100    0.0100    0.0100    0.0100
    0.0100    0.0100    0.0100    0.0100    0.0100    0.0100    0.0100    0.0100
    0.0100    0.0100    0.0100    0.0100    0.0100    0.0100    0.0100    0.0100
    0.0100    0.0100    0.0100    0.0100    0.0100    0.0100    0.0100    0.0100
    0.0100    0.0100    0.0100    0.0100    0.0100    0.0100    0.0100    0.0100
    0.0100    0.0100    0.0100    0.0100    0.0100    0.0100    0.0100    0.0100
    0.0100    0.0100    0.0100    0.0100    0.0100    0.0100    0.0100    0.0100
    0.0100    0.0100    0.0100    0.0100    0.0100    0.0100    0.0100    0.0100
    0.0100    0.0100    0.0100    0.0100    0.0100    0.0100    0.0100    0.0100
    0.0100    0.0100    0.0100    0.0100    0.0100    0.0100    0.0100    0.0100
    0.0100    0.0100    0.0100    0.0100    0.0100    0.0100    0.0100    0.0100
    0.0100    0.0100    0.0100    0.0100    0.0100    0.0100    0.0100    0.0100
    0.0100    0.0100    0.0100    0.0100    0.0100    0.0100    0.0100    0.0100
    0.0100    0.0100    0.0100    0.0100    0.0100    0.0100    0.0100    0.0100
    0.0100    0.0100    0.0100    0.0100    0.0100    0.0100    0.0100    0.0100
    0.0100    0.0100    0.0100    0.0100    0.0100    0.0100    0.0100    0.0100
    0.0100    0.0100    0.0100    0.0100    0.0100    0.0100    0.0100    0.0100
    0.0100    0.0100    0.0100    0.0100    0.0100    0.0100    0.0100    0.0100
    0.0100    0.0100    0.0100    0.0100    0.0100    0.0100    0.0100    0.0100
    0.0100    0.0100    0.0100    0.0100    0.0100    0.0100    0.0100    0.0100
    0.0100    0.0100    0.0100    0.0100    0.0100    0.0100    0.0100    0.0100
    0.0100    0.0100    0.0100    0.0100    0.0100    0.0100    0.0100    0.0100
    0.0100    0.0100    0.0100    0.0100    0.0100    0.0100    0.0100    0.0100
    0.0100    0.0100    0.0100    0.0100    0.0100    0.0100    0.0100    0.0100
    0.0100    0.0100    0.0100    0.0100    0.0100    0.0100    0.0100    0.0100
    0.0100    0.0100    0.0100    0.0100    0.0100    0.0100    0.0100    0.0100
    0.0100    0.0100    0.0100    0.0100    0.0100    0.0100    0.0100    0.0100
    0.0100    0.0100    0.0100    0.0100    0.0100    0.0100    0.0100    0.0100
    0.0100    0.0100    0.0100    0.0100    0.0100    0.0100    0.0100    0.0100
    0.0100    0.0100    0.0100    0.0100    0.0100    0.0100    0.0100    0.0100
    0.0100    0.0100    0.0100    0.0100    0.0100    0.0100    0.0100    0.0100
    0.0100    0.0100    0.0100    0.0100    0.0100    0.0100    0.0100    0.0100
    0.0100    0.0100    0.0100    0.0100    0.0100    0.0100    0.0100    0.0100
    0.0100    0.0100    0.0100    0.0100    0.0100    0.0100    0.0100    0.0100
    0.0100    0.0100    0.0100    0.0100    0.0100    0.0100    0.0100    0.0100
    0.0100    0.0100    0.0100    0.0100    0.0100    0.0100    0.0100    0.0100
    0.0100    0.0100    0.0100    0.0100    0.0100    0.0100    0.0100    0.0100
    0.0100    0.0100    0.0100    0.0100    0.0100    0.0100    0.0100    0.0100
    0.0100    0.0100    0.0100    0.0100    0.0100    0.0100    0.0100    0.0100
    0.0100    0.0100    0.0100    0.0100    0.0100    0.0100    0.0100    0.0100
    0.0100    0.0100    0.0100    0.0100    0.0100    0.0100    0.0100    0.0100
    0.0100    0.0100    0.0100    0.0100    0.0100    0.0100    0.0100    0.0100
    0.0100    0.0100    0.0100    0.0100    0.0100    0.0100    0.0100    0.0100
    0.0100    0.0100    0.0100    0.0100    0.0100    0.0100    0.0100    0.0100
    0.0100    0.0100    0.0100    0.0100    0.0100    0.0100    0.0100    0.0100
    0.0100    0.0100    0.0100    0.0100    0.0100    0.0100    0.0100    0.0100
    0.0100    0.0100    0.0100    0.0100    0.0100    0.0100    0.0100    0.0100
    0.0100    0.0100    0.0100    0.0100    0.0100    0.0100    0.0100    0.0100
    0.0100    0.0100    0.0100    0.0100    0.0100    0.0100    0.0100    0.0100
    0.0100    0.0100    0.0100    0.0100    0.0100    0.0100    0.0100    0.0100
    0.0100    0.0100    0.0100    0.0100    0.0100    0.0100    0.0100    0.0100
    0.0100    0.0100    0.0100    0.0100    0.0100    0.0100    0.0100    0.0100
    0.0100    0.0100    0.0100    0.0100    0.0100    0.0100    0.0100    0.0100
    0.0100    0.0100    0.0100    0.0100    0.0100    0.0100    0.0100    0.0100
    0.0100    0.0100    0.0100    0.0100    0.0100    0.0100    0.0100    0.0100
    0.0100    0.0100    0.0100    0.0100    0.0100    0.0100    0.0100    0.0100
    0.0100    0.0100    0.0100    0.0100    0.0100    0.0100    0.0100    0.0100
    0.0100    0.0100    0.0100    0.0100    0.0100    0.0100    0.0100    0.0100
    0.0100    0.0100    0.0100    0.0100    0.0100    0.0100    0.0100    0.0100
    0.0100    0.0100    0.0100    0.0100    0.0100    0.0100    0.0100    0.0100
    0.0100    0.0100    0.0100    0.0100    0.0100    0.0100    0.0100    0.0100
    0.0100    0.0100    0.0100    0.0100    0.0100    0.0100    0.0100    0.0100
    0.0100    0.0100    0.0100    0.0100    0.0100    0.0100    0.0100    0.0100
    0.0100    0.0100    0.0100    0.0100    0.0100    0.0100    0.0100    0.0100
    0.0100    0.0100    0.0100    0.0100    0.0100    0.0100    0.0100    0.0100
    0.0100    0.0100    0.0100    0.0100    0.0100    0.0100    0.0100    0.0100
    0.0100    0.0100    0.0100    0.0100    0.0100    0.0100    0.0100    0.0100
    0.0100    0.0100    0.0100    0.0100    0.0100    0.0100    0.0100    0.0100
    0.0100    0.0100    0.0100    0.0100    0.0100    0.0100    0.0100    0.0100
    0.0100    0.0100    0.0100    0.0100    0.0100    0.0100    0.0100    0.0100
    0.0100    0.0100    0.0100    0.0100    0.0100    0.0100    0.0100    0.0100
    0.0100    0.0100    0.0100    0.0100    0.0100    0.0100    0.0100    0.0100
    0.0100    0.0100    0.0100    0.0100    0.0100    0.0100    0.0100    0.0100
    0.0100    0.0100    0.0100    0.0100    0.0100    0.0100    0.0100    0.0100
    0.0100    0.0100    0.0100    0.0100    0.0100    0.0100    0.0100    0.0100
    0.0100    0.0100    0.0100    0.0100    0.0100    0.0100    0.0100    0.0100
    0.0100    0.0100    0.0100    0.0100    0.0100    0.0100    0.0100    0.0100
    0.0100    0.0100    0.0100    0.0100    0.0100    0.0100    0.0100    0.0100
    0.0100    0.0100    0.0100    0.0100    0.0100    0.0100    0.0100    0.0100
    0.0100    0.0100    0.0100    0.0100    0.0100    0.0100    0.0100    0.0100
    0.0100    0.0100    0.0100    0.0100    0.0100    0.0100    0.0100    0.0100
    0.0100    0.0100    0.0100    0.0100    0.0100    0.0100    0.0100    0.0100
    0.0100    0.0100    0.0100    0.0100    0.0100    0.0100    0.0100    0.0100
    0.0100    0.0100    0.0100    0.0100    0.0100    0.0100    0.0100    0.0100
    0.0100    0.0100    0.0100    0.0100    0.0100    0.0100    0.0100    0.0100
    0.0100    0.0100    0.0100    0.0100    0.0100    0.0100    0.0100    0.0100
    0.0100    0.0100    0.0100    0.0100    0.0100    0.0100    0.0100    0.0100
    0.0100    0.0100    0.0100    0.0100    0.0100    0.0100    0.0100    0.0100
    0.0100    0.0100    0.0100    0.0100    0.0100    0.0100    0.0100    0.0100
    0.0100    0.0100    0.0100    0.0100    0.0100    0.0100    0.0100    0.0100
    0.0100    0.0100    0.0100    0.0100    0.0100    0.0100    0.0100    0.0100
    0.0100    0.0100    0.0100    0.0100    0.0100    0.0100    0.0100    0.0100
    0.0100    0.0100    0.0100    0.0100    0.0100    0.0100    0.0100    0.0100
    0.0100    0.0100    0.0100    0.0100    0.0100    0.0100    0.0100    0.0100
    0.0100    0.0100    0.0100    0.0100    0.0100    0.0100    0.0100    0.0100
    0.0100    0.0100    0.0100    0.0100    0.0100    0.0100    0.0100    0.0100
    0.0100    0.0100    0.0100    0.0100    0.0100    0.0100    0.0100    0.0100
    0.0100    0.0100    0.0100    0.0100    0.0100    0.0100    0.0100    0.0100
    0.0100    0.0100    0.0100    0.0100    0.0100    0.0100    0.0100    0.0100
    0.0100    0.0100    0.0100    0.0100    0.0100    0.0100    0.0100    0.0100
    0.0100    0.0100    0.0100    0.0100    0.0100    0.0100    0.0100    0.0100
    0.0100    0.0100    0.0100    0.0100    0.0100    0.0100    0.0100    0.0100
    0.0100    0.0100    0.0100    0.0100    0.0100    0.0100    0.0100    0.0100
    0.0100    0.0100    0.0100    0.0100    0.0100    0.0100    0.0100    0.0100
    0.0100    0.0100    0.0100    0.0100    0.0100    0.0100    0.0100    0.0100
    0.0100    0.0100    0.0100    0.0100    0.0100    0.0100    0.0100    0.0100
    0.0100    0.0100    0.0100    0.0100    0.0100    0.0100    0.0100    0.0100
    0.0100    0.0100    0.0100    0.0100    0.0100    0.0100    0.0100    0.0100
    0.0100    0.0100    0.0100    0.0100    0.0100    0.0100    0.0100    0.0100
    0.0100    0.0100    0.0100    0.0100    0.0100    0.0100    0.0100    0.0100
    0.0100    0.0100    0.0100    0.0100    0.0100    0.0100    0.0100    0.0100
    0.0100    0.0100    0.0100    0.0100    0.0100    0.0100    0.0100    0.0100
    0.0100    0.0100    0.0100    0.0100    0.0100    0.0100    0.0100    0.0100
    0.0100    0.0100    0.0100    0.0100    0.0100    0.0100    0.0100    0.0100
    0.0100    0.0100    0.0100    0.0100    0.0100    0.0100    0.0100    0.0100
    0.0100    0.0100    0.0100    0.0100    0.0100    0.0100    0.0100    0.0100
    0.0100    0.0100    0.0100    0.0100    0.0100    0.0100    0.0100    0.0100
    0.0100    0.0100    0.0100    0.0100    0.0100    0.0100    0.0100    0.0100
    0.0100    0.0100    0.0100    0.0100    0.0100    0.0100    0.0100    0.0100
    0.0100    0.0100    0.0100    0.0100    0.0100    0.0100    0.0100    0.0100
    0.0100    0.0100    0.0100    0.0100    0.0100    0.0100    0.0100    0.0100
    0.0100    0.0100    0.0100    0.0100    0.0100    0.0100    0.0100    0.0100
    0.0100    0.0100    0.0100    0.0100    0.0100    0.0100    0.0100    0.0100
    0.0100    0.0100    0.0100    0.0100    0.0100    0.0100    0.0100    0.0100
    0.0100    0.0100    0.0100    0.0100    0.0100    0.0100    0.0100    0.0100
    0.0100    0.0100    0.0100    0.0100    0.0100    0.0100    0.0100    0.0100
    0.0100    0.0100    0.0100    0.0100    0.0100    0.0100    0.0100    0.0100
    0.0100    0.0100    0.0100    0.0100    0.0100    0.0100    0.0100    0.0100
    0.0100    0.0100    0.0100    0.0100    0.0100    0.0100    0.0100    0.0100
    0.0100    0.0100    0.0100    0.0100    0.0100    0.0100    0.0100    0.0100
    0.0100
   </PP_RAB>
 </PP_MESH>
  <PP_LOCAL type="real"  size="5001" columns="4">
     6.4478146217E-01     6.4477970767E-01     6.4477444421E-01     6.4476567195E-01
     6.4475339115E-01     6.4473760217E-01     6.4471830548E-01     6.4469550163E-01
     6.4466919130E-01     6.4463937526E-01     6.4460605439E-01     6.4456922967E-01
     6.4452890218E-01     6.4448507310E-01     6.4443774373E-01     6.4438691544E-01
     6.4433258974E-01     6.4427476821E-01     6.4421345255E-01     6.4414864457E-01
     6.4408034617E-01     6.4400855934E-01     6.4393328619E-01     6.4385452894E-01
     6.4377228989E-01     6.4368657144E-01     6.4359737612E-01     6.4350470653E-01
     6.4340856539E-01     6.4330895552E-01     6.4320587982E-01     6.4309934132E-01
     6.4298934313E-01     6.4287588848E-01     6.4275898067E-01     6.4263862312E-01
     6.4251481936E-01     6.4238757300E-01     6.4225688774E-01     6.4212276742E-01
     6.4198521593E-01     6.4184423730E-01     6.4169983563E-01     6.4155201513E-01
     6.4140078011E-01     6.4124613498E-01     6.4108808422E-01     6.4092663245E-01
     6.4076178435E-01     6.4059354472E-01     6.4042191845E-01     6.4024691053E-01
     6.4006852602E-01     6.3988677011E-01     6.3970164807E-01     6.3951316526E-01
     6.3932132714E-01     6.3912613927E-01     6.3892760730E-01     6.3872573696E-01
     6.3852053410E-01     6.3831200463E-01     6.3810015459E-01     6.3788499008E-01
     6.3766651731E-01     6.3744474257E-01     6.3721967225E-01     6.3699131283E-01
     6.3675967088E-01     6.3652475306E-01     6.3628656611E-01     6.3604511688E-01
     6.3580041228E-01     6.3555245934E-01     6.3530126516E-01     6.3504683692E-01
     6.3478918191E-01     6.3452830749E-01     6.3426422112E-01     6.3399693033E-01
     6.3372644274E-01     6.3345276606E-01     6.3317590809E-01     6.3289587670E-01
     6.3261267986E-01     6.3232632561E-01     6.3203682208E-01     6.3174417747E-01
     6.3144840009E-01     6.3114949830E-01     6.3084748056E-01     6.3054235541E-01
     6.3023413146E-01     6.2992281741E-01     6.2960842203E-01     6.2929095417E-01
     6.2897042278E-01     6.2864683686E-01     6.2832020549E-01     6.2799053783E-01
     6.2765784314E-01     6.2732213072E-01     6.2698340997E-01     6.2664169035E-01
     6.2629698140E-01     6.2594929273E-01     6.2559863404E-01     6.2524501507E-01
     6.2488844566E-01     6.2452893571E-01     6.2416649520E-01     6.2380113417E-01
     6.2343286274E-01     6.2306169108E-01     6.2268762945E-01     6.2231068816E-01
     6.2193087761E-01     6.2154820825E-01     6.2116269061E-01     6.2077433526E-01
     6.2038315286E-01     6.1998915412E-01     6.1959234984E-01     6.1919275085E-01
     6.1879036806E-01     6.1838521244E-01     6.1797729503E-01     6.1756662691E-01
     6.1715321925E-01     6.1673708325E-01     6.1631823019E-01     6.1589667140E-01
     6.1547241827E-01     6.1504548226E-01     6.1461587486E-01     6.1418360764E-01
     6.1374869221E-01     6.1331114026E-01     6.1287096350E-01     6.1242817372E-01
     6.1198278275E-01     6.1153480248E-01     6.1108424485E-01     6.1063112186E-01
     6.1017544554E-01     6.0971722798E-01     6.0925648133E-01     6.0879321778E-01
     6.0832744956E-01     6.0785918897E-01     6.0738844834E-01     6.0691524005E-01
     6.0643957653E-01     6.0596147024E-01     6.0548093370E-01     6.0499797947E-01
     6.0451262016E-01     6.0402486842E-01     6.0353473691E-01     6.0304223839E-01
     6.0254738561E-01     6.0205019139E-01     6.0155066857E-01     6.0104883005E-01
     6.0054468874E-01     6.0003825761E-01     5.9952954967E-01     5.9901857794E-01
     5.9850535550E-01     5.9798989545E-01     5.9747221093E-01     5.9695231512E-01
     5.9643022123E-01     5.9590594249E-01     5.9537949217E-01     5.9485088357E-01
     5.9432013004E-01     5.9378724491E-01     5.9325224160E-01     5.9271513351E-01
     5.9217593408E-01     5.9163465680E-01     5.9109131517E-01     5.9054592270E-01
     5.8999849294E-01     5.8944903948E-01     5.8889757590E-01     5.8834411583E-01
     5.8778867292E-01     5.8723126082E-01     5.8667189322E-01     5.8611058383E-01
     5.8554734638E-01     5.8498219461E-01     5.8441514228E-01     5.8384620318E-01
     5.8327539110E-01     5.8270271987E-01     5.8212820330E-01     5.8155185526E-01
     5.8097368959E-01     5.8039372018E-01     5.7981196091E-01     5.7922842569E-01
     5.7864312843E-01     5.7805608305E-01     5.7746730349E-01     5.7687680370E-01
     5.7628459762E-01     5.7569069923E-01     5.7509512250E-01     5.7449788141E-01
     5.7389898994E-01     5.7329846210E-01     5.7269631187E-01     5.7209255326E-01
     5.7148720029E-01     5.7088026696E-01     5.7027176730E-01     5.6966171531E-01
     5.6905012503E-01     5.6843701048E-01     5.6782238567E-01     5.6720626464E-01
     5.6658866140E-01     5.6596958998E-01     5.6534906441E-01     5.6472709869E-01
     5.6410370684E-01     5.6347890289E-01     5.6285270083E-01     5.6222511467E-01
     5.6159615842E-01     5.6096584605E-01     5.6033419157E-01     5.5970120895E-01
     5.5906691217E-01     5.5843131518E-01     5.5779443196E-01     5.5715627643E-01
     5.5651686255E-01     5.5587620423E-01     5.5523431540E-01     5.5459120997E-01
     5.5394690181E-01     5.5330140482E-01     5.5265473286E-01     5.5200689978E-01
     5.5135791943E-01     5.5070780563E-01     5.5005657220E-01     5.4940423291E-01
     5.4875080156E-01     5.4809629190E-01     5.4744071768E-01     5.4678409262E-01
     5.4612643042E-01     5.4546774479E-01     5.4480804939E-01     5.4414735785E-01
     5.4348568383E-01     5.4282304091E-01     5.4215944269E-01     5.4149490274E-01
     5.4082943458E-01     5.4016305175E-01     5.3949576774E-01     5.3882759601E-01
     5.3815855001E-01     5.3748864317E-01     5.3681788889E-01     5.3614630052E-01
     5.3547389143E-01     5.3480067491E-01     5.3412666427E-01     5.3345187277E-01
     5.3277631364E-01     5.3210000008E-01     5.3142294528E-01     5.3074516238E-01
     5.3006666449E-01     5.2938746470E-01     5.2870757607E-01     5.2802701163E-01
     5.2734578436E-01     5.2666390723E-01     5.2598139315E-01     5.2529825504E-01
     5.2461450575E-01     5.2393015810E-01     5.2324522490E-01     5.2255971890E-01
     5.2187365282E-01     5.2118703935E-01     5.2049989115E-01     5.1981222083E-01
     5.1912404097E-01     5.1843536412E-01     5.1774620277E-01     5.1705656941E-01
     5.1636647645E-01     5.1567593630E-01     5.1498496130E-01     5.1429356376E-01
     5.1360175597E-01     5.1290955015E-01     5.1221695850E-01     5.1152399317E-01
     5.1083066628E-01     5.1013698989E-01     5.0944297604E-01     5.0874863672E-01
     5.0805398387E-01     5.0735902939E-01     5.0666378515E-01     5.0596826296E-01
     5.0527247460E-01     5.0457643180E-01     5.0388014624E-01     5.0318362956E-01
     5.0248689337E-01     5.0178994922E-01     5.0109280861E-01     5.0039548300E-01
     4.9969798382E-01     4.9900032243E-01     4.9830251015E-01     4.9760455827E-01
     4.9690647801E-01     4.9620828056E-01     4.9550997705E-01     4.9481157858E-01
     4.9411309618E-01     4.9341454084E-01     4.9271592352E-01     4.9201725511E-01
     4.9131854645E-01     4.9061980834E-01     4.8992105154E-01     4.8922228674E-01
     4.8852352459E-01     4.8782477570E-01     4.8712605061E-01     4.8642735983E-01
     4.8572871381E-01     4.8503012294E-01     4.8433159757E-01     4.8363314801E-01
     4.8293478450E-01     4.8223651722E-01     4.8153835634E-01     4.8084031194E-01
     4.8014239405E-01     4.7944461268E-01     4.7874697775E-01     4.7804949915E-01
     4.7735218671E-01     4.7665505022E-01     4.7595809938E-01     4.7526134389E-01
     4.7456479336E-01     4.7386845735E-01     4.7317234539E-01     4.7247646692E-01
     4.7178083137E-01     4.7108544808E-01     4.7039032635E-01     4.6969547543E-01
     4.6900090451E-01     4.6830662273E-01     4.6761263917E-01     4.6691896286E-01
     4.6622560278E-01     4.6553256785E-01     4.6483986693E-01     4.6414750884E-01
     4.6345550233E-01     4.6276385611E-01     4.6207257882E-01     4.6138167906E-01
     4.6069116536E-01     4.6000104621E-01     4.5931133003E-01     4.5862202520E-01
     4.5793314004E-01     4.5724468280E-01     4.5655666170E-01     4.5586908488E-01
     4.5518196045E-01     4.5449529645E-01     4.5380910085E-01     4.5312338160E-01
     4.5243814656E-01     4.5175340356E-01     4.5106916036E-01     4.5038542467E-01
     4.4970220415E-01     4.4901950639E-01     4.4833733893E-01     4.4765570926E-01
     4.4697462481E-01     4.4629409297E-01     4.4561412104E-01     4.4493471630E-01
     4.4425588596E-01     4.4357763717E-01     4.4289997702E-01     4.4222291257E-01
     4.4154645080E-01     4.4087059865E-01     4.4019536299E-01     4.3952075064E-01
     4.3884676838E-01     4.3817342292E-01     4.3750072091E-01     4.3682866896E-01
     4.3615727361E-01     4.3548654136E-01     4.3481647864E-01     4.3414709184E-01
     4.3347838729E-01     4.3281037125E-01     4.3214304996E-01     4.3147642956E-01
     4.3081051618E-01     4.3014531587E-01     4.2948083463E-01     4.2881707841E-01
     4.2815405309E-01     4.2749176453E-01     4.2683021849E-01     4.2616942072E-01
     4.2550937690E-01     4.2485009264E-01     4.2419157351E-01     4.2353382504E-01
     4.2287685269E-01     4.2222066185E-01     4.2156525791E-01     4.2091064614E-01
     4.2025683181E-01     4.1960382012E-01     4.1895161621E-01     4.1830022517E-01
     4.1764965204E-01     4.1699990181E-01     4.1635097942E-01     4.1570288975E-01
     4.1505563763E-01     4.1440922784E-01     4.1376366511E-01     4.1311895412E-01
     4.1247509949E-01     4.1183210579E-01     4.1118997755E-01     4.1054871923E-01
     4.0990833527E-01     4.0926883003E-01     4.0863020783E-01     4.0799247293E-01
     4.0735562957E-01     4.0671968190E-01     4.0608463405E-01     4.0545049008E-01
     4.0481725402E-01     4.0418492984E-01     4.0355352145E-01     4.0292303273E-01
     4.0229346749E-01     4.0166482953E-01     4.0103712255E-01     4.0041035024E-01
     3.9978451623E-01     3.9915962410E-01     3.9853567737E-01     3.9791267954E-01
     3.9729063404E-01     3.9666954427E-01     3.9604941356E-01     3.9543024521E-01
     3.9481204247E-01     3.9419480854E-01     3.9357854658E-01     3.9296325970E-01
     3.9234895096E-01     3.9173562338E-01     3.9112327994E-01     3.9051192355E-01
     3.8990155710E-01     3.8929218343E-01     3.8868380533E-01     3.8807642554E-01
     3.8747004676E-01     3.8686467166E-01     3.8626030285E-01     3.8565694289E-01
     3.8505459432E-01     3.8445325961E-01     3.8385294121E-01     3.8325364150E-01
     3.8265536286E-01     3.8205810757E-01     3.8146187792E-01     3.8086667613E-01
     3.8027250438E-01     3.7967936482E-01     3.7908725954E-01     3.7849619060E-01
     3.7790616003E-01     3.7731716979E-01     3.7672922183E-01     3.7614231804E-01
     3.7555646027E-01     3.7497165035E-01     3.7438789004E-01     3.7380518107E-01
     3.7322352516E-01     3.7264292394E-01     3.7206337905E-01     3.7148489206E-01
     3.7090746450E-01     3.7033109789E-01     3.6975579368E-01     3.6918155331E-01
     3.6860837815E-01     3.6803626956E-01     3.6746522885E-01     3.6689525730E-01
     3.6632635615E-01     3.6575852661E-01     3.6519176983E-01     3.6462608694E-01
     3.6406147906E-01     3.6349794722E-01     3.6293549245E-01     3.6237411575E-01
     3.6181381807E-01     3.6125460032E-01     3.6069646339E-01     3.6013940812E-01
     3.5958343534E-01     3.5902854582E-01     3.5847474031E-01     3.5792201952E-01
     3.5737038415E-01     3.5681983483E-01     3.5627037217E-01     3.5572199678E-01
     3.5517470918E-01     3.5462850991E-01     3.5408339944E-01     3.5353937824E-01
     3.5299644672E-01     3.5245460528E-01     3.5191385429E-01     3.5137419406E-01
     3.5083562491E-01     3.5029814710E-01     3.4976176087E-01     3.4922646643E-01
     3.4869226396E-01     3.4815915361E-01     3.4762713551E-01     3.4709620975E-01
     3.4656637639E-01     3.4603763547E-01     3.4550998699E-01     3.4498343094E-01
     3.4445796727E-01     3.4393359590E-01     3.4341031673E-01     3.4288812963E-01
     3.4236703443E-01     3.4184703097E-01     3.4132811902E-01     3.4081029835E-01
     3.4029356870E-01     3.3977792978E-01     3.3926338128E-01     3.3874992285E-01
     3.3823755413E-01     3.3772627474E-01     3.3721608425E-01     3.3670698224E-01
     3.3619896822E-01     3.3569204173E-01     3.3518620225E-01     3.3468144924E-01
     3.3417778215E-01     3.3367520040E-01     3.3317370337E-01     3.3267329045E-01
     3.3217396098E-01     3.3167571430E-01     3.3117854970E-01     3.3068246648E-01
     3.3018746389E-01     3.2969354117E-01     3.2920069756E-01     3.2870893223E-01
     3.2821824438E-01     3.2772863316E-01     3.2724009769E-01     3.2675263711E-01
     3.2626625051E-01     3.2578093696E-01     3.2529669551E-01     3.2481352522E-01
     3.2433142508E-01     3.2385039411E-01     3.2337043128E-01     3.2289153555E-01
     3.2241370586E-01     3.2193694115E-01     3.2146124031E-01     3.2098660223E-01
     3.2051302579E-01     3.2004050984E-01     3.1956905321E-01     3.1909865472E-01
     3.1862931317E-01     3.1816102736E-01     3.1769379605E-01     3.1722761798E-01
     3.1676249190E-01     3.1629841653E-01     3.1583539057E-01     3.1537341270E-01
     3.1491248162E-01     3.1445259596E-01     3.1399375438E-01     3.1353595550E-01
     3.1307919793E-01     3.1262348029E-01     3.1216880114E-01     3.1171515906E-01
     3.1126255261E-01     3.1081098034E-01     3.1036044076E-01     3.0991093240E-01
     3.0946245376E-01     3.0901500333E-01     3.0856857958E-01     3.0812318098E-01
     3.0767880599E-01     3.0723545303E-01     3.0679312054E-01     3.0635180693E-01
     3.0591151061E-01     3.0547222997E-01     3.0503396338E-01     3.0459670921E-01
     3.0416046583E-01     3.0372523157E-01     3.0329100478E-01     3.0285778377E-01
     3.0242556686E-01     3.0199435236E-01     3.0156413856E-01     3.0113492374E-01
     3.0070670617E-01     3.0027948412E-01     2.9985325584E-01     2.9942801958E-01
     2.9900377357E-01     2.9858051604E-01     2.9815824520E-01     2.9773695926E-01
     2.9731665642E-01     2.9689733487E-01     2.9647899280E-01     2.9606162837E-01
     2.9564523976E-01     2.9522982512E-01     2.9481538260E-01     2.9440191035E-01
     2.9398940649E-01     2.9357786916E-01     2.9316729647E-01     2.9275768655E-01
     2.9234903749E-01     2.9194134739E-01     2.9153461435E-01     2.9112883644E-01
     2.9072401176E-01     2.9032013838E-01     2.8991721435E-01     2.8951523775E-01
     2.8911420661E-01     2.8871411901E-01     2.8831497297E-01     2.8791676654E-01
     2.8751949774E-01     2.8712316460E-01     2.8672776516E-01     2.8633329741E-01
     2.8593975938E-01     2.8554714906E-01     2.8515546447E-01     2.8476470360E-01
     2.8437486445E-01     2.8398594499E-01     2.8359794322E-01     2.8321085711E-01
     2.8282468465E-01     2.8243942381E-01     2.8205507254E-01     2.8167162883E-01
     2.8128909062E-01     2.8090745589E-01     2.8052672257E-01     2.8014688863E-01
     2.7976795201E-01     2.7938991066E-01     2.7901276252E-01     2.7863650553E-01
     2.7826113762E-01     2.7788665674E-01     2.7751306080E-01     2.7714034775E-01
     2.7676851551E-01     2.7639756200E-01     2.7602748514E-01     2.7565828287E-01
     2.7528995308E-01     2.7492249371E-01     2.7455590267E-01     2.7419017787E-01
     2.7382531722E-01     2.7346131864E-01     2.7309818003E-01     2.7273589930E-01
     2.7237447435E-01     2.7201390311E-01     2.7165418346E-01     2.7129531331E-01
     2.7093729057E-01     2.7058011313E-01     2.7022377891E-01     2.6986828579E-01
     2.6951363169E-01     2.6915981450E-01     2.6880683212E-01     2.6845468244E-01
     2.6810336338E-01     2.6775287283E-01     2.6740320868E-01     2.6705436884E-01
     2.6670635121E-01     2.6635915368E-01     2.6601277416E-01     2.6566721055E-01
     2.6532246075E-01     2.6497852265E-01     2.6463539416E-01     2.6429307319E-01
     2.6395155763E-01     2.6361084539E-01     2.6327093437E-01     2.6293182249E-01
     2.6259350764E-01     2.6225598773E-01     2.6191926068E-01     2.6158332439E-01
     2.6124817678E-01     2.6091381575E-01     2.6058023922E-01     2.6024744511E-01
     2.5991543133E-01     2.5958419580E-01     2.5925373644E-01     2.5892405117E-01
     2.5859513792E-01     2.5826699461E-01     2.5793961916E-01     2.5761300951E-01
     2.5728716359E-01     2.5696207933E-01     2.5663775466E-01     2.5631418752E-01
     2.5599137585E-01     2.5566931759E-01     2.5534801069E-01     2.5502745309E-01
     2.5470764273E-01     2.5438857757E-01     2.5407025557E-01     2.5375267467E-01
     2.5343583283E-01     2.5311972802E-01     2.5280435820E-01     2.5248972133E-01
     2.5217581539E-01     2.5186263833E-01     2.5155018815E-01     2.5123846281E-01
     2.5092746030E-01     2.5061717859E-01     2.5030761568E-01     2.4999876955E-01
     2.4969063819E-01     2.4938321960E-01     2.4907651178E-01     2.4877051272E-01
     2.4846522044E-01     2.4816063294E-01     2.4785674823E-01     2.4755356432E-01
     2.4725107924E-01     2.4694929100E-01     2.4664819762E-01     2.4634779715E-01
     2.4604808759E-01     2.4574906700E-01     2.4545073341E-01     2.4515308487E-01
     2.4485611941E-01     2.4455983508E-01     2.4426422994E-01     2.4396930205E-01
     2.4367504947E-01     2.4338147025E-01     2.4308856247E-01     2.4279632420E-01
     2.4250475351E-01     2.4221384848E-01     2.4192360720E-01     2.4163402776E-01
     2.4134510823E-01     2.4105684673E-01     2.4076924134E-01     2.4048229017E-01
     2.4019599133E-01     2.3991034292E-01     2.3962534307E-01     2.3934098988E-01
     2.3905728149E-01     2.3877421602E-01     2.3849179161E-01     2.3821000638E-01
     2.3792885848E-01     2.3764834605E-01     2.3736846723E-01     2.3708922019E-01
     2.3681060308E-01     2.3653261406E-01     2.3625525129E-01     2.3597851294E-01
     2.3570239719E-01     2.3542690221E-01     2.3515202619E-01     2.3487776731E-01
     2.3460412377E-01     2.3433109376E-01     2.3405867548E-01     2.3378686713E-01
     2.3351566692E-01     2.3324507308E-01     2.3297508380E-01     2.3270569732E-01
     2.3243691186E-01     2.3216872566E-01     2.3190113694E-01     2.3163414395E-01
     2.3136774494E-01     2.3110193815E-01     2.3083672183E-01     2.3057209425E-01
     2.3030805366E-01     2.3004459834E-01     2.2978172655E-01     2.2951943658E-01
     2.2925772669E-01     2.2899659519E-01     2.2873604035E-01     2.2847606048E-01
     2.2821665387E-01     2.2795781882E-01     2.2769955365E-01     2.2744185667E-01
     2.2718472619E-01     2.2692816054E-01     2.2667215805E-01     2.2641671704E-01
     2.2616183586E-01     2.2590751284E-01     2.2565374633E-01     2.2540053469E-01
     2.2514787625E-01     2.2489576939E-01     2.2464421247E-01     2.2439320386E-01
     2.2414274193E-01     2.2389282506E-01     2.2364345164E-01     2.2339462004E-01
     2.2314632867E-01     2.2289857591E-01     2.2265136018E-01     2.2240467987E-01
     2.2215853341E-01     2.2191291919E-01     2.2166783566E-01     2.2142328122E-01
     2.2117925431E-01     2.2093575336E-01     2.2069277682E-01     2.2045032312E-01
     2.2020839072E-01     2.1996697806E-01     2.1972608361E-01     2.1948570583E-01
     2.1924584318E-01     2.1900649413E-01     2.1876765717E-01     2.1852933077E-01
     2.1829151342E-01     2.1805420361E-01     2.1781739983E-01     2.1758110058E-01
     2.1734530437E-01     2.1711000970E-01     2.1687521510E-01     2.1664091907E-01
     2.1640712013E-01     2.1617381683E-01     2.1594100768E-01     2.1570869123E-01
     2.1547686601E-01     2.1524553057E-01     2.1501468346E-01     2.1478432324E-01
     2.1455444846E-01     2.1432505769E-01     2.1409614950E-01     2.1386772245E-01
     2.1363977513E-01     2.1341230612E-01     2.1318531400E-01     2.1295879737E-01
     2.1273275483E-01     2.1250718496E-01     2.1228208638E-01     2.1205745769E-01
     2.1183329751E-01     2.1160960446E-01     2.1138637715E-01     2.1116361422E-01
     2.1094131430E-01     2.1071947602E-01     2.1049809803E-01     2.1027717896E-01
     2.1005671747E-01     2.0983671220E-01     2.0961716183E-01     2.0939806501E-01
     2.0917942040E-01     2.0896122668E-01     2.0874348252E-01     2.0852618661E-01
     2.0830933763E-01     2.0809293426E-01     2.0787697520E-01     2.0766145914E-01
     2.0744638480E-01     2.0723175086E-01     2.0701755606E-01     2.0680379908E-01
     2.0659047867E-01     2.0637759353E-01     2.0616514240E-01     2.0595312401E-01
     2.0574153709E-01     2.0553038039E-01     2.0531965265E-01     2.0510935261E-01
     2.0489947903E-01     2.0469003066E-01     2.0448100627E-01     2.0427240462E-01
     2.0406422449E-01     2.0385646464E-01     2.0364912385E-01     2.0344220090E-01
     2.0323569458E-01     2.0302960369E-01     2.0282392700E-01     2.0261866333E-01
     2.0241381147E-01     2.0220937023E-01     2.0200533842E-01     2.0180171486E-01
     2.0159849835E-01     2.0139568774E-01     2.0119328183E-01     2.0099127947E-01
     2.0078967948E-01     2.0058848071E-01     2.0038768200E-01     2.0018728219E-01
     1.9998728013E-01     1.9978767468E-01     1.9958846470E-01     1.9938964904E-01
     1.9919122658E-01     1.9899319619E-01     1.9879555673E-01     1.9859830708E-01
     1.9840144614E-01     1.9820497277E-01     1.9800888587E-01     1.9781318434E-01
     1.9761786707E-01     1.9742293296E-01     1.9722838092E-01     1.9703420984E-01
     1.9684041866E-01     1.9664700627E-01     1.9645397161E-01     1.9626131358E-01
     1.9606903113E-01     1.9587712318E-01     1.9568558866E-01     1.9549442652E-01
     1.9530363569E-01     1.9511321511E-01     1.9492316375E-01     1.9473348054E-01
     1.9454416446E-01     1.9435521445E-01     1.9416662948E-01     1.9397840851E-01
     1.9379055052E-01     1.9360305449E-01     1.9341591938E-01     1.9322914418E-01
     1.9304272788E-01     1.9285666945E-01     1.9267096791E-01     1.9248562223E-01
     1.9230063142E-01     1.9211599448E-01     1.9193171042E-01     1.9174777824E-01
     1.9156419696E-01     1.9138096560E-01     1.9119808316E-01     1.9101554869E-01
     1.9083336119E-01     1.9065151971E-01     1.9047002327E-01     1.9028887091E-01
     1.9010806167E-01     1.8992759459E-01     1.8974746873E-01     1.8956768312E-01
     1.8938823683E-01     1.8920912890E-01     1.8903035840E-01     1.8885192439E-01
     1.8867382594E-01     1.8849606211E-01     1.8831863198E-01     1.8814153463E-01
     1.8796476912E-01     1.8778833455E-01     1.8761223001E-01     1.8743645457E-01
     1.8726100733E-01     1.8708588738E-01     1.8691109383E-01     1.8673662577E-01
     1.8656248231E-01     1.8638866255E-01     1.8621516561E-01     1.8604199060E-01
     1.8586913663E-01     1.8569660283E-01     1.8552438832E-01     1.8535249222E-01
     1.8518091366E-01     1.8500965177E-01     1.8483870570E-01     1.8466807457E-01
     1.8449775752E-01     1.8432775371E-01     1.8415806228E-01     1.8398868237E-01
     1.8381961314E-01     1.8365085374E-01     1.8348240334E-01     1.8331426110E-01
     1.8314642617E-01     1.8297889773E-01     1.8281167494E-01     1.8264475699E-01
     1.8247814303E-01     1.8231183227E-01     1.8214582386E-01     1.8198011701E-01
     1.8181471089E-01     1.8164960469E-01     1.8148479761E-01     1.8132028885E-01
     1.8115607760E-01     1.8099216306E-01     1.8082854444E-01     1.8066522094E-01
     1.8050219177E-01     1.8033945615E-01     1.8017701329E-01     1.8001486240E-01
     1.7985300270E-01     1.7969143343E-01     1.7953015380E-01     1.7936916304E-01
     1.7920846038E-01     1.7904804506E-01     1.7888791631E-01     1.7872807337E-01
     1.7856851549E-01     1.7840924189E-01     1.7825025184E-01     1.7809154458E-01
     1.7793311936E-01     1.7777497544E-01     1.7761711206E-01     1.7745952850E-01
     1.7730222402E-01     1.7714519787E-01     1.7698844932E-01     1.7683197765E-01
     1.7667578212E-01     1.7651986201E-01     1.7636421660E-01     1.7620884516E-01
     1.7605374698E-01     1.7589892134E-01     1.7574436752E-01     1.7559008482E-01
     1.7543607253E-01     1.7528232993E-01     1.7512885634E-01     1.7497565104E-01
     1.7482271333E-01     1.7467004253E-01     1.7451763792E-01     1.7436549884E-01
     1.7421362457E-01     1.7406201444E-01     1.7391066776E-01     1.7375958385E-01
     1.7360876202E-01     1.7345820160E-01     1.7330790192E-01     1.7315786229E-01
     1.7300808206E-01     1.7285856054E-01     1.7270929707E-01     1.7256029099E-01
     1.7241154164E-01     1.7226304835E-01     1.7211481047E-01     1.7196682734E-01
     1.7181909831E-01     1.7167162273E-01     1.7152439994E-01     1.7137742930E-01
     1.7123071017E-01     1.7108424191E-01     1.7093802386E-01     1.7079205540E-01
     1.7064633589E-01     1.7050086469E-01     1.7035564118E-01     1.7021066471E-01
     1.7006593467E-01     1.6992145043E-01     1.6977721137E-01     1.6963321686E-01
     1.6948946628E-01     1.6934595902E-01     1.6920269446E-01     1.6905967199E-01
     1.6891689100E-01     1.6877435088E-01     1.6863205101E-01     1.6848999081E-01
     1.6834816965E-01     1.6820658694E-01     1.6806524209E-01     1.6792413449E-01
     1.6778326355E-01     1.6764262868E-01     1.6750222928E-01     1.6736206477E-01
     1.6722213455E-01     1.6708243805E-01     1.6694297467E-01     1.6680374384E-01
     1.6666474498E-01     1.6652597751E-01     1.6638744085E-01     1.6624913443E-01
     1.6611105768E-01     1.6597321003E-01     1.6583559090E-01     1.6569819974E-01
     1.6556103597E-01     1.6542409903E-01     1.6528738837E-01     1.6515090342E-01
     1.6501464363E-01     1.6487860844E-01     1.6474279730E-01     1.6460720965E-01
     1.6447184494E-01     1.6433670263E-01     1.6420178217E-01     1.6406708302E-01
     1.6393260462E-01     1.6379834645E-01     1.6366430796E-01     1.6353048861E-01
     1.6339688787E-01     1.6326350520E-01     1.6313034007E-01     1.6299739194E-01
     1.6286466030E-01     1.6273214461E-01     1.6259984435E-01     1.6246775898E-01
     1.6233588800E-01     1.6220423088E-01     1.6207278709E-01     1.6194155613E-01
     1.6181053748E-01     1.6167973061E-01     1.6154913503E-01     1.6141875022E-01
     1.6128857567E-01     1.6115861087E-01     1.6102885531E-01     1.6089930850E-01
     1.6076996993E-01     1.6064083910E-01     1.6051191550E-01     1.6038319865E-01
     1.6025468804E-01     1.6012638318E-01     1.5999828358E-01     1.5987038874E-01
     1.5974269818E-01     1.5961521141E-01     1.5948792793E-01     1.5936084727E-01
     1.5923396894E-01     1.5910729246E-01     1.5898081734E-01     1.5885454311E-01
     1.5872846930E-01     1.5860259541E-01     1.5847692099E-01     1.5835144555E-01
     1.5822616862E-01     1.5810108974E-01     1.5797620843E-01     1.5785152423E-01
     1.5772703667E-01     1.5760274529E-01     1.5747864962E-01     1.5735474921E-01
     1.5723104358E-01     1.5710753229E-01     1.5698421488E-01     1.5686109089E-01
     1.5673815986E-01     1.5661542134E-01     1.5649287489E-01     1.5637052005E-01
     1.5624835637E-01     1.5612638341E-01     1.5600460072E-01     1.5588300785E-01
     1.5576160436E-01     1.5564038982E-01     1.5551936377E-01     1.5539852578E-01
     1.5527787542E-01     1.5515741224E-01     1.5503713581E-01     1.5491704570E-01
     1.5479714148E-01     1.5467742271E-01     1.5455788896E-01     1.5443853981E-01
     1.5431937483E-01     1.5420039359E-01     1.5408159567E-01     1.5396298064E-01
     1.5384454809E-01     1.5372629760E-01     1.5360822873E-01     1.5349034108E-01
     1.5337263424E-01     1.5325510777E-01     1.5313776128E-01     1.5302059434E-01
     1.5290360654E-01     1.5278679748E-01     1.5267016675E-01     1.5255371394E-01
     1.5243743863E-01     1.5232134043E-01     1.5220541894E-01     1.5208967374E-01
     1.5197410444E-01     1.5185871063E-01     1.5174349192E-01     1.5162844791E-01
     1.5151357820E-01     1.5139888240E-01     1.5128436011E-01     1.5117001094E-01
     1.5105583449E-01     1.5094183038E-01     1.5082799822E-01     1.5071433761E-01
     1.5060084818E-01     1.5048752952E-01     1.5037438127E-01     1.5026140302E-01
     1.5014859441E-01     1.5003595505E-01     1.4992348456E-01     1.4981118256E-01
     1.4969904867E-01     1.4958708252E-01     1.4947528372E-01     1.4936365191E-01
     1.4925218671E-01     1.4914088774E-01     1.4902975464E-01     1.4891878704E-01
     1.4880798456E-01     1.4869734684E-01     1.4858687351E-01     1.4847656421E-01
     1.4836641856E-01     1.4825643622E-01     1.4814661680E-01     1.4803695996E-01
     1.4792746532E-01     1.4781813254E-01     1.4770896125E-01     1.4759995110E-01
     1.4749110172E-01     1.4738241277E-01     1.4727388388E-01     1.4716551472E-01
     1.4705730491E-01     1.4694925412E-01     1.4684136199E-01     1.4673362817E-01
     1.4662605232E-01     1.4651863408E-01     1.4641137312E-01     1.4630426908E-01
     1.4619732163E-01     1.4609053041E-01     1.4598389510E-01     1.4587741533E-01
     1.4577109079E-01     1.4566492112E-01     1.4555890599E-01     1.4545304506E-01
     1.4534733800E-01     1.4524178446E-01     1.4513638413E-01     1.4503113665E-01
     1.4492604171E-01     1.4482109897E-01     1.4471630809E-01     1.4461166876E-01
     1.4450718064E-01     1.4440284340E-01     1.4429865671E-01     1.4419462026E-01
     1.4409073372E-01     1.4398699676E-01     1.4388340905E-01     1.4377997029E-01
     1.4367668015E-01     1.4357353830E-01     1.4347054443E-01     1.4336769822E-01
     1.4326499935E-01     1.4316244751E-01     1.4306004238E-01     1.4295778365E-01
     1.4285567100E-01     1.4275370412E-01     1.4265188270E-01     1.4255020642E-01
     1.4244867498E-01     1.4234728807E-01     1.4224604538E-01     1.4214494660E-01
     1.4204399143E-01     1.4194317955E-01     1.4184251067E-01     1.4174198448E-01
     1.4164160068E-01     1.4154135896E-01     1.4144125903E-01     1.4134130058E-01
     1.4124148331E-01     1.4114180693E-01     1.4104227114E-01     1.4094287563E-01
     1.4084362012E-01     1.4074450430E-01     1.4064552789E-01     1.4054669058E-01
     1.4044799209E-01     1.4034943213E-01     1.4025101039E-01     1.4015272660E-01
     1.4005458046E-01     1.3995657168E-01     1.3985869998E-01     1.3976096507E-01
     1.3966336665E-01     1.3956590445E-01     1.3946857818E-01     1.3937138756E-01
     1.3927433229E-01     1.3917741211E-01     1.3908062673E-01     1.3898397586E-01
     1.3888745923E-01     1.3879107656E-01     1.3869482757E-01     1.3859871197E-01
     1.3850272951E-01     1.3840687988E-01     1.3831116283E-01     1.3821557808E-01
     1.3812012535E-01     1.3802480437E-01     1.3792961486E-01     1.3783455656E-01
     1.3773962920E-01     1.3764483250E-01     1.3755016619E-01     1.3745563001E-01
     1.3736122368E-01     1.3726694694E-01     1.3717279953E-01     1.3707878118E-01
     1.3698489161E-01     1.3689113058E-01     1.3679749780E-01     1.3670399303E-01
     1.3661061600E-01     1.3651736644E-01     1.3642424410E-01     1.3633124872E-01
     1.3623838003E-01     1.3614563778E-01     1.3605302171E-01     1.3596053156E-01
     1.3586816708E-01     1.3577592801E-01     1.3568381409E-01     1.3559182507E-01
     1.3549996070E-01     1.3540822072E-01     1.3531660488E-01     1.3522511293E-01
     1.3513374462E-01     1.3504249970E-01     1.3495137791E-01     1.3486037901E-01
     1.3476950275E-01     1.3467874888E-01     1.3458811716E-01     1.3449760734E-01
     1.3440721917E-01     1.3431695240E-01     1.3422680680E-01     1.3413678212E-01
     1.3404687812E-01     1.3395709455E-01     1.3386743117E-01     1.3377788774E-01
     1.3368846403E-01     1.3359915978E-01     1.3350997477E-01     1.3342090874E-01
     1.3333196148E-01     1.3324313272E-01     1.3315442225E-01     1.3306582983E-01
     1.3297735521E-01     1.3288899817E-01     1.3280075847E-01     1.3271263587E-01
     1.3262463015E-01     1.3253674107E-01     1.3244896839E-01     1.3236131190E-01
     1.3227377135E-01     1.3218634652E-01     1.3209903718E-01     1.3201184310E-01
     1.3192476405E-01     1.3183779981E-01     1.3175095014E-01     1.3166421482E-01
     1.3157759363E-01     1.3149108634E-01     1.3140469273E-01     1.3131841256E-01
     1.3123224563E-01     1.3114619170E-01     1.3106025055E-01     1.3097442197E-01
     1.3088870573E-01     1.3080310160E-01     1.3071760938E-01     1.3063222884E-01
     1.3054695977E-01     1.3046180194E-01     1.3037675513E-01     1.3029181914E-01
     1.3020699373E-01     1.3012227871E-01     1.3003767385E-01     1.2995317894E-01
     1.2986879376E-01     1.2978451810E-01     1.2970035174E-01     1.2961629449E-01
     1.2953234611E-01     1.2944850641E-01     1.2936477516E-01     1.2928115217E-01
     1.2919763721E-01     1.2911423009E-01     1.2903093059E-01     1.2894773850E-01
     1.2886465362E-01     1.2878167573E-01     1.2869880464E-01     1.2861604014E-01
     1.2853338202E-01     1.2845083007E-01     1.2836838410E-01     1.2828604389E-01
     1.2820380925E-01     1.2812167997E-01     1.2803965584E-01     1.2795773668E-01
     1.2787592227E-01     1.2779421242E-01     1.2771260692E-01     1.2763110557E-01
     1.2754970819E-01     1.2746841456E-01     1.2738722448E-01     1.2730613777E-01
     1.2722515422E-01     1.2714427364E-01     1.2706349583E-01     1.2698282060E-01
     1.2690224774E-01     1.2682177707E-01     1.2674140840E-01     1.2666114151E-01
     1.2658097623E-01     1.2650091237E-01     1.2642094972E-01     1.2634108809E-01
     1.2626132731E-01     1.2618166716E-01     1.2610210747E-01     1.2602264805E-01
     1.2594328870E-01     1.2586402924E-01     1.2578486947E-01     1.2570580921E-01
     1.2562684828E-01     1.2554798648E-01     1.2546922363E-01     1.2539055954E-01
     1.2531199402E-01     1.2523352690E-01     1.2515515799E-01     1.2507688709E-01
     1.2499871404E-01     1.2492063864E-01     1.2484266071E-01     1.2476478008E-01
     1.2468699655E-01     1.2460930995E-01     1.2453172009E-01     1.2445422680E-01
     1.2437682989E-01     1.2429952919E-01     1.2422232451E-01     1.2414521569E-01
     1.2406820252E-01     1.2399128485E-01     1.2391446250E-01     1.2383773528E-01
     1.2376110301E-01     1.2368456554E-01     1.2360812266E-01     1.2353177423E-01
     1.2345552004E-01     1.2337935995E-01     1.2330329376E-01     1.2322732130E-01
     1.2315144241E-01     1.2307565691E-01     1.2299996462E-01     1.2292436538E-01
     1.2284885901E-01     1.2277344535E-01     1.2269812422E-01     1.2262289545E-01
     1.2254775887E-01     1.2247271431E-01     1.2239776161E-01     1.2232290060E-01
     1.2224813110E-01     1.2217345295E-01     1.2209886598E-01     1.2202437003E-01
     1.2194996492E-01     1.2187565050E-01     1.2180142660E-01     1.2172729305E-01
     1.2165324968E-01     1.2157929634E-01     1.2150543285E-01     1.2143165906E-01
     1.2135797480E-01     1.2128437991E-01     1.2121087423E-01     1.2113745759E-01
     1.2106412983E-01     1.2099089079E-01     1.2091774031E-01     1.2084467824E-01
     1.2077170440E-01     1.2069881864E-01     1.2062602080E-01     1.2055331072E-01
     1.2048068824E-01     1.2040815321E-01     1.2033570546E-01     1.2026334485E-01
     1.2019107120E-01     1.2011888437E-01     1.2004678420E-01     1.1997477053E-01
     1.1990284321E-01     1.1983100209E-01     1.1975924699E-01     1.1968757779E-01
     1.1961599431E-01     1.1954449640E-01     1.1947308392E-01     1.1940175671E-01
     1.1933051461E-01     1.1925935747E-01     1.1918828515E-01     1.1911729749E-01
     1.1904639433E-01     1.1897557554E-01     1.1890484095E-01     1.1883419042E-01
     1.1876362380E-01     1.1869314094E-01     1.1862274169E-01     1.1855242589E-01
     1.1848219341E-01     1.1841204410E-01     1.1834197780E-01     1.1827199437E-01
     1.1820209367E-01     1.1813227554E-01     1.1806253984E-01     1.1799288642E-01
     1.1792331514E-01     1.1785382586E-01     1.1778441842E-01     1.1771509269E-01
     1.1764584852E-01     1.1757668576E-01     1.1750760428E-01     1.1743860392E-01
     1.1736968456E-01     1.1730084603E-01     1.1723208821E-01     1.1716341094E-01
     1.1709481410E-01     1.1702629753E-01     1.1695786110E-01     1.1688950467E-01
     1.1682122809E-01     1.1675303122E-01     1.1668491393E-01     1.1661687608E-01
     1.1654891753E-01     1.1648103814E-01     1.1641323777E-01     1.1634551628E-01
     1.1627787354E-01     1.1621030940E-01     1.1614282374E-01     1.1607541641E-01
     1.1600808729E-01     1.1594083622E-01     1.1587366308E-01     1.1580656774E-01
     1.1573955005E-01     1.1567260988E-01     1.1560574710E-01     1.1553896157E-01
     1.1547225317E-01     1.1540562174E-01     1.1533906718E-01     1.1527258933E-01
     1.1520618807E-01     1.1513986326E-01     1.1507361478E-01     1.1500744249E-01
     1.1494134625E-01     1.1487532595E-01     1.1480938145E-01     1.1474351261E-01
     1.1467771931E-01     1.1461200142E-01     1.1454635881E-01     1.1448079135E-01
     1.1441529890E-01     1.1434988135E-01     1.1428453856E-01     1.1421927041E-01
     1.1415407676E-01     1.1408895749E-01     1.1402391248E-01     1.1395894159E-01
     1.1389404469E-01     1.1382922168E-01     1.1376447240E-01     1.1369979675E-01
     1.1363519459E-01     1.1357066581E-01     1.1350621026E-01     1.1344182784E-01
     1.1337751841E-01     1.1331328186E-01     1.1324911805E-01     1.1318502687E-01
     1.1312100819E-01     1.1305706189E-01     1.1299318784E-01     1.1292938593E-01
     1.1286565603E-01     1.1280199802E-01     1.1273841177E-01     1.1267489717E-01
     1.1261145410E-01     1.1254808243E-01     1.1248478205E-01     1.1242155283E-01
     1.1235839465E-01     1.1229530740E-01     1.1223229096E-01     1.1216934520E-01
     1.1210647000E-01     1.1204366526E-01     1.1198093084E-01     1.1191826664E-01
     1.1185567253E-01     1.1179314840E-01     1.1173069412E-01     1.1166830959E-01
     1.1160599469E-01     1.1154374929E-01     1.1148157329E-01     1.1141946656E-01
     1.1135742900E-01     1.1129546048E-01     1.1123356089E-01     1.1117173012E-01
     1.1110996805E-01     1.1104827456E-01     1.1098664955E-01     1.1092509289E-01
     1.1086360448E-01     1.1080218420E-01     1.1074083194E-01     1.1067954758E-01
     1.1061833102E-01     1.1055718214E-01     1.1049610082E-01     1.1043508696E-01
     1.1037414044E-01     1.1031326116E-01     1.1025244900E-01     1.1019170385E-01
     1.1013102560E-01     1.1007041414E-01     1.1000986935E-01     1.0994939114E-01
     1.0988897939E-01     1.0982863398E-01     1.0976835482E-01     1.0970814179E-01
     1.0964799478E-01     1.0958791369E-01     1.0952789840E-01     1.0946794881E-01
     1.0940806482E-01     1.0934824630E-01     1.0928849316E-01     1.0922880529E-01
     1.0916918258E-01     1.0910962492E-01     1.0905013222E-01     1.0899070435E-01
     1.0893134122E-01     1.0887204272E-01     1.0881280875E-01     1.0875363920E-01
     1.0869453396E-01     1.0863549293E-01     1.0857651601E-01     1.0851760308E-01
     1.0845875406E-01     1.0839996883E-01     1.0834124728E-01     1.0828258933E-01
     1.0822399485E-01     1.0816546376E-01     1.0810699594E-01     1.0804859129E-01
     1.0799024972E-01     1.0793197112E-01     1.0787375538E-01     1.0781560242E-01
     1.0775751211E-01     1.0769948437E-01     1.0764151910E-01     1.0758361618E-01
     1.0752577553E-01     1.0746799704E-01     1.0741028060E-01     1.0735262613E-01
     1.0729503352E-01     1.0723750267E-01     1.0718003349E-01     1.0712262586E-01
     1.0706527970E-01     1.0700799491E-01     1.0695077138E-01     1.0689360902E-01
     1.0683650774E-01     1.0677946742E-01     1.0672248798E-01     1.0666556932E-01
     1.0660871135E-01     1.0655191395E-01     1.0649517704E-01     1.0643850052E-01
     1.0638188430E-01     1.0632532827E-01     1.0626883235E-01     1.0621239643E-01
     1.0615602043E-01     1.0609970424E-01     1.0604344776E-01     1.0598725092E-01
     1.0593111360E-01     1.0587503572E-01     1.0581901719E-01     1.0576305790E-01
     1.0570715776E-01     1.0565131668E-01     1.0559553457E-01     1.0553981134E-01
     1.0548414688E-01     1.0542854111E-01     1.0537299393E-01     1.0531750526E-01
     1.0526207499E-01     1.0520670304E-01     1.0515138932E-01     1.0509613373E-01
     1.0504093618E-01     1.0498579658E-01     1.0493071484E-01     1.0487569087E-01
     1.0482072457E-01     1.0476581586E-01     1.0471096465E-01     1.0465617084E-01
     1.0460143435E-01     1.0454675509E-01     1.0449213296E-01     1.0443756788E-01
     1.0438305975E-01     1.0432860849E-01     1.0427421402E-01     1.0421987623E-01
     1.0416559504E-01     1.0411137037E-01     1.0405720212E-01     1.0400309022E-01
     1.0394903455E-01     1.0389503506E-01     1.0384109163E-01     1.0378720419E-01
     1.0373337266E-01     1.0367959693E-01     1.0362587693E-01     1.0357221258E-01
     1.0351860377E-01     1.0346505043E-01     1.0341155247E-01     1.0335810981E-01
     1.0330472236E-01     1.0325139003E-01     1.0319811274E-01     1.0314489040E-01
     1.0309172293E-01     1.0303861024E-01     1.0298555226E-01     1.0293254889E-01
     1.0287960004E-01     1.0282670565E-01     1.0277386561E-01     1.0272107986E-01
     1.0266834830E-01     1.0261567085E-01     1.0256304743E-01     1.0251047795E-01
     1.0245796234E-01     1.0240550050E-01     1.0235309237E-01     1.0230073784E-01
     1.0224843685E-01     1.0219618931E-01     1.0214399514E-01     1.0209185425E-01
     1.0203976657E-01     1.0198773202E-01     1.0193575050E-01     1.0188382195E-01
     1.0183194627E-01     1.0178012340E-01     1.0172835325E-01     1.0167663573E-01
     1.0162497077E-01     1.0157335830E-01     1.0152179822E-01     1.0147029045E-01
     1.0141883493E-01     1.0136743157E-01     1.0131608029E-01     1.0126478100E-01
     1.0121353365E-01     1.0116233813E-01     1.0111119438E-01     1.0106010232E-01
     1.0100906186E-01     1.0095807293E-01     1.0090713546E-01     1.0085624936E-01
     1.0080541456E-01     1.0075463097E-01     1.0070389853E-01     1.0065321715E-01
     1.0060258676E-01     1.0055200728E-01     1.0050147863E-01     1.0045100075E-01
     1.0040057354E-01     1.0035019693E-01     1.0029987085E-01     1.0024959523E-01
     1.0019936998E-01     1.0014919503E-01     1.0009907031E-01     1.0004899574E-01
     9.9998971242E-02     9.9948996743E-02     9.9899072170E-02     9.9849197446E-02
     9.9799372497E-02     9.9749597249E-02     9.9699871627E-02     9.9650195557E-02
     9.9600568966E-02     9.9550991779E-02     9.9501463922E-02     9.9451985323E-02
     9.9402555906E-02     9.9353175600E-02     9.9303844332E-02     9.9254562027E-02
     9.9205328613E-02     9.9156144018E-02     9.9107008168E-02     9.9057920992E-02
     9.9008882418E-02     9.8959892372E-02     9.8910950783E-02     9.8862057580E-02
     9.8813212690E-02     9.8764416041E-02     9.8715667563E-02     9.8666967185E-02
     9.8618314834E-02     9.8569710440E-02     9.8521153933E-02     9.8472645241E-02
     9.8424184293E-02     9.8375771020E-02     9.8327405351E-02     9.8279087216E-02
     9.8230816544E-02     9.8182593266E-02     9.8134417313E-02     9.8086288614E-02
     9.8038207100E-02     9.7990172701E-02     9.7942185349E-02     9.7894244975E-02
     9.7846351509E-02     9.7798504882E-02     9.7750705026E-02     9.7702951873E-02
     9.7655245353E-02     9.7607585400E-02     9.7559971943E-02     9.7512404916E-02
     9.7464884251E-02     9.7417409880E-02     9.7369981735E-02     9.7322599749E-02
     9.7275263854E-02     9.7227973983E-02     9.7180730070E-02     9.7133532046E-02
     9.7086379846E-02     9.7039273403E-02     9.6992212650E-02     9.6945197520E-02
     9.6898227948E-02     9.6851303866E-02     9.6804425210E-02     9.6757591913E-02
     9.6710803909E-02     9.6664061133E-02     9.6617363519E-02     9.6570711001E-02
     9.6524103515E-02     9.6477540995E-02     9.6431023377E-02     9.6384550595E-02
     9.6338122584E-02     9.6291739280E-02     9.6245400618E-02     9.6199106534E-02
     9.6152856963E-02     9.6106651842E-02     9.6060491106E-02     9.6014374692E-02
     9.5968302535E-02     9.5922274572E-02     9.5876290740E-02     9.5830350974E-02
     9.5784455212E-02     9.5738603391E-02     9.5692795447E-02     9.5647031317E-02
     9.5601310939E-02     9.5555634249E-02     9.5510001186E-02     9.5464411687E-02
     9.5418865689E-02     9.5373363130E-02     9.5327903948E-02     9.5282488082E-02
     9.5237115468E-02     9.5191786046E-02     9.5146499754E-02     9.5101256531E-02
     9.5056056314E-02     9.5010899042E-02     9.4965784655E-02     9.4920713091E-02
     9.4875684290E-02     9.4830698190E-02     9.4785754732E-02     9.4740853853E-02
     9.4695995494E-02     9.4651179595E-02     9.4606406094E-02     9.4561674933E-02
     9.4516986051E-02     9.4472339388E-02     9.4427734884E-02     9.4383172479E-02
     9.4338652115E-02     9.4294173731E-02     9.4249737268E-02     9.4205342668E-02
     9.4160989870E-02     9.4116678816E-02     9.4072409447E-02     9.4028181704E-02
     9.3983995528E-02     9.3939850861E-02     9.3895747645E-02     9.3851685821E-02
     9.3807665330E-02     9.3763686115E-02     9.3719748118E-02     9.3675851280E-02
     9.3631995545E-02     9.3588180853E-02     9.3544407149E-02     9.3500674373E-02
     9.3456982469E-02     9.3413331380E-02     9.3369721047E-02     9.3326151416E-02
     9.3282622427E-02     9.3239134025E-02     9.3195686153E-02     9.3152278753E-02
     9.3108911771E-02     9.3065585148E-02     9.3022298830E-02     9.2979052759E-02
     9.2935846879E-02     9.2892681135E-02     9.2849555471E-02     9.2806469830E-02
     9.2763424158E-02     9.2720418398E-02     9.2677452495E-02     9.2634526394E-02
     9.2591640039E-02     9.2548793375E-02     9.2505986348E-02     9.2463218901E-02
     9.2420490981E-02     9.2377802533E-02     9.2335153501E-02     9.2292543832E-02
     9.2249973470E-02     9.2207442362E-02     9.2164950453E-02     9.2122497689E-02
     9.2080084016E-02     9.2037709380E-02     9.1995373728E-02     9.1953077004E-02
     9.1910819156E-02     9.1868600130E-02     9.1826419873E-02     9.1784278331E-02
     9.1742175451E-02     9.1700111180E-02     9.1658085465E-02     9.1616098252E-02
     9.1574149489E-02     9.1532239123E-02     9.1490367101E-02     9.1448533372E-02
     9.1406737881E-02     9.1364980577E-02     9.1323261408E-02     9.1281580321E-02
     9.1239937264E-02     9.1198332186E-02     9.1156765034E-02     9.1115235756E-02
     9.1073744300E-02     9.1032290616E-02     9.0990874651E-02     9.0949496355E-02
     9.0908155674E-02     9.0866852560E-02     9.0825586959E-02     9.0784358821E-02
     9.0743168096E-02     9.0702014732E-02     9.0660898678E-02     9.0619819884E-02
     9.0578778299E-02     9.0537773872E-02     9.0496806554E-02     9.0455876293E-02
     9.0414983040E-02     9.0374126744E-02     9.0333307355E-02     9.0292524823E-02
     9.0251779099E-02     9.0211070132E-02     9.0170397874E-02     9.0129762273E-02
     9.0089163281E-02     9.0048600848E-02     9.0008074925E-02     8.9967585463E-02
     8.9927132412E-02     8.9886715723E-02     8.9846335348E-02     8.9805991236E-02
     8.9765683341E-02     8.9725411612E-02     8.9685176002E-02     8.9644976461E-02
     8.9604812941E-02     8.9564685393E-02     8.9524593771E-02     8.9484538024E-02
     8.9444518105E-02     8.9404533967E-02     8.9364585560E-02     8.9324672838E-02
     8.9284795752E-02     8.9244954254E-02     8.9205148298E-02     8.9165377835E-02
     8.9125642818E-02     8.9085943200E-02     8.9046278933E-02     8.9006649970E-02
     8.8967056265E-02     8.8927497770E-02     8.8887974437E-02     8.8848486221E-02
     8.8809033074E-02     8.8769614951E-02     8.8730231803E-02     8.8690883585E-02
     8.8651570250E-02     8.8612291752E-02     8.8573048044E-02     8.8533839081E-02
     8.8494664816E-02     8.8455525203E-02     8.8416420196E-02     8.8377349750E-02
     8.8338313818E-02     8.8299312355E-02     8.8260345315E-02     8.8221412653E-02
     8.8182514323E-02     8.8143650279E-02     8.8104820477E-02     8.8066024872E-02
     8.8027263417E-02     8.7988536068E-02     8.7949842781E-02     8.7911183509E-02
     8.7872558209E-02     8.7833966835E-02     8.7795409343E-02     8.7756885688E-02
     8.7718395826E-02     8.7679939712E-02     8.7641517302E-02     8.7603128552E-02
     8.7564773417E-02     8.7526451853E-02     8.7488163816E-02     8.7449909263E-02
     8.7411688148E-02     8.7373500430E-02     8.7335346063E-02     8.7297225004E-02
     8.7259137209E-02     8.7221082636E-02     8.7183061240E-02     8.7145072978E-02
     8.7107117806E-02     8.7069195683E-02     8.7031306564E-02     8.6993450406E-02
     8.6955627167E-02     8.6917836803E-02     8.6880079272E-02     8.6842354530E-02
     8.6804662536E-02     8.6767003247E-02     8.6729376619E-02     8.6691782611E-02
     8.6654221180E-02     8.6616692284E-02     8.6579195880E-02     8.6541731927E-02
     8.6504300382E-02     8.6466901203E-02     8.6429534349E-02     8.6392199777E-02
     8.6354897445E-02     8.6317627313E-02     8.6280389337E-02     8.6243183477E-02
     8.6206009691E-02     8.6168867938E-02     8.6131758176E-02     8.6094680363E-02
     8.6057634459E-02     8.6020620423E-02     8.5983638213E-02     8.5946687788E-02
     8.5909769108E-02     8.5872882131E-02     8.5836026817E-02     8.5799203125E-02
     8.5762411014E-02     8.5725650443E-02     8.5688921373E-02     8.5652223762E-02
     8.5615557570E-02     8.5578922757E-02     8.5542319283E-02     8.5505747107E-02
     8.5469206190E-02     8.5432696490E-02     8.5396217969E-02     8.5359770586E-02
     8.5323354302E-02     8.5286969076E-02     8.5250614869E-02     8.5214291642E-02
     8.5177999354E-02     8.5141737967E-02     8.5105507440E-02     8.5069307734E-02
     8.5033138811E-02     8.4997000631E-02     8.4960893154E-02     8.4924816341E-02
     8.4888770154E-02     8.4852754554E-02     8.4816769501E-02     8.4780814957E-02
     8.4744890883E-02     8.4708997240E-02     8.4673133990E-02     8.4637301093E-02
     8.4601498513E-02     8.4565726209E-02     8.4529984144E-02     8.4494272279E-02
     8.4458590576E-02     8.4422938997E-02     8.4387317504E-02     8.4351726058E-02
     8.4316164622E-02     8.4280633158E-02     8.4245131627E-02     8.4209659993E-02
     8.4174218217E-02     8.4138806262E-02     8.4103424089E-02     8.4068071662E-02
     8.4032748943E-02     8.3997455894E-02     8.3962192478E-02     8.3926958659E-02
     8.3891754398E-02     8.3856579658E-02     8.3821434402E-02     8.3786318594E-02
     8.3751232196E-02     8.3716175171E-02     8.3681147483E-02     8.3646149094E-02
     8.3611179968E-02     8.3576240068E-02     8.3541329358E-02     8.3506447801E-02
     8.3471595360E-02     8.3436772000E-02     8.3401977683E-02     8.3367212373E-02
     8.3332476035E-02     8.3297768631E-02     8.3263090126E-02     8.3228440484E-02
     8.3193819669E-02     8.3159227644E-02     8.3124664374E-02     8.3090129823E-02
     8.3055623955E-02     8.3021146735E-02     8.2986698126E-02     8.2952278094E-02
     8.2917886602E-02     8.2883523615E-02     8.2849189098E-02     8.2814883016E-02
     8.2780605333E-02     8.2746356013E-02     8.2712135022E-02     8.2677942325E-02
     8.2643777886E-02     8.2609641670E-02     8.2575533643E-02     8.2541453770E-02
     8.2507402015E-02     8.2473378344E-02     8.2439382722E-02     8.2405415115E-02
     8.2371475487E-02     8.2337563806E-02     8.2303680034E-02     8.2269824140E-02
     8.2235996087E-02     8.2202195842E-02     8.2168423370E-02     8.2134678638E-02
     8.2100961611E-02     8.2067272254E-02     8.2033610535E-02     8.1999976418E-02
     8.1966369870E-02     8.1932790858E-02     8.1899239346E-02     8.1865715302E-02
     8.1832218692E-02     8.1798749482E-02     8.1765307638E-02     8.1731893128E-02
     8.1698505917E-02     8.1665145971E-02     8.1631813259E-02     8.1598507745E-02
     8.1565229398E-02     8.1531978183E-02     8.1498754068E-02     8.1465557020E-02
     8.1432387005E-02     8.1399243990E-02     8.1366127943E-02     8.1333038830E-02
     8.1299976619E-02     8.1266941277E-02     8.1233932772E-02     8.1200951069E-02
     8.1167996138E-02     8.1135067945E-02     8.1102166457E-02     8.1069291643E-02
     8.1036443470E-02     8.1003621905E-02     8.0970826916E-02     8.0938058472E-02
     8.0905316539E-02     8.0872601085E-02     8.0839912079E-02     8.0807249488E-02
     8.0774613281E-02     8.0742003425E-02     8.0709419888E-02     8.0676862640E-02
     8.0644331647E-02     8.0611826878E-02     8.0579348301E-02     8.0546895885E-02
     8.0514469599E-02     8.0482069410E-02     8.0449695287E-02     8.0417347199E-02
     8.0385025114E-02     8.0352729001E-02     8.0320458829E-02     8.0288214566E-02
     8.0255996181E-02     8.0223803644E-02     8.0191636922E-02     8.0159495985E-02
     8.0127380803E-02     8.0095291343E-02     8.0063227576E-02     8.0031189469E-02
     7.9999176993E-02     7.9967190117E-02     7.9935228810E-02     7.9903293042E-02
     7.9871382781E-02     7.9839497997E-02     7.9807638661E-02     7.9775804740E-02
     7.9743996206E-02     7.9712213027E-02     7.9680455173E-02     7.9648722614E-02
     7.9617015320E-02     7.9585333261E-02     7.9553676406E-02     7.9522044725E-02
     7.9490438189E-02     7.9458856767E-02     7.9427300430E-02     7.9395769148E-02
     7.9364262890E-02     7.9332781628E-02     7.9301325331E-02     7.9269893969E-02
     7.9238487513E-02     7.9207105934E-02     7.9175749202E-02     7.9144417287E-02
     7.9113110160E-02     7.9081827791E-02     7.9050570152E-02     7.9019337212E-02
     7.8988128943E-02     7.8956945315E-02     7.8925786300E-02     7.8894651867E-02
     7.8863541989E-02     7.8832456635E-02     7.8801395778E-02     7.8770359387E-02
     7.8739347435E-02     7.8708359891E-02     7.8677396728E-02     7.8646457917E-02
     7.8615543429E-02     7.8584653235E-02     7.8553787307E-02     7.8522945616E-02
     7.8492128133E-02     7.8461334831E-02     7.8430565680E-02     7.8399820652E-02
     7.8369099719E-02     7.8338402853E-02     7.8307730025E-02     7.8277081207E-02
     7.8246456371E-02     7.8215855488E-02     7.8185278532E-02     7.8154725472E-02
     7.8124196283E-02     7.8093690935E-02     7.8063209400E-02     7.8032751652E-02
     7.8002317661E-02     7.7971907401E-02     7.7941520843E-02     7.7911157960E-02
     7.7880818724E-02     7.7850503108E-02     7.7820211083E-02     7.7789942623E-02
     7.7759697700E-02     7.7729476286E-02     7.7699278354E-02     7.7669103877E-02
     7.7638952828E-02     7.7608825178E-02     7.7578720901E-02     7.7548639970E-02
     7.7518582358E-02     7.7488548037E-02     7.7458536980E-02     7.7428549161E-02
     7.7398584552E-02     7.7368643127E-02     7.7338724858E-02     7.7308829719E-02
     7.7278957683E-02     7.7249108723E-02     7.7219282812E-02     7.7189479924E-02
     7.7159700032E-02     7.7129943110E-02     7.7100209130E-02     7.7070498067E-02
     7.7040809894E-02     7.7011144584E-02     7.6981502111E-02     7.6951882448E-02
     7.6922285571E-02     7.6892711451E-02     7.6863160063E-02     7.6833631381E-02
     7.6804125378E-02     7.6774642028E-02     7.6745181306E-02     7.6715743185E-02
     7.6686327639E-02     7.6656934643E-02     7.6627564170E-02     7.6598216194E-02
     7.6568890691E-02     7.6539587632E-02     7.6510306995E-02     7.6481048751E-02
     7.6451812876E-02     7.6422599344E-02     7.6393408130E-02     7.6364239207E-02
     7.6335092551E-02     7.6305968136E-02     7.6276865936E-02     7.6247785926E-02
     7.6218728081E-02     7.6189692375E-02     7.6160678783E-02     7.6131687280E-02
     7.6102717840E-02     7.6073770439E-02     7.6044845051E-02     7.6015941651E-02
     7.5987060214E-02     7.5958200715E-02     7.5929363130E-02     7.5900547432E-02
     7.5871753598E-02     7.5842981602E-02     7.5814231419E-02     7.5785503025E-02
     7.5756796395E-02     7.5728111505E-02     7.5699448328E-02     7.5670806842E-02
     7.5642187021E-02     7.5613588841E-02     7.5585012277E-02     7.5556457304E-02
     7.5527923899E-02     7.5499412036E-02     7.5470921692E-02     7.5442452842E-02
     7.5414005461E-02     7.5385579526E-02     7.5357175013E-02     7.5328791896E-02
     7.5300430152E-02     7.5272089757E-02     7.5243770686E-02     7.5215472916E-02
     7.5187196422E-02     7.5158941181E-02     7.5130707169E-02     7.5102494361E-02
     7.5074302734E-02     7.5046132264E-02     7.5017982927E-02     7.4989854700E-02
     7.4961747558E-02     7.4933661478E-02     7.4905596436E-02     7.4877552409E-02
     7.4849529373E-02     7.4821527304E-02     7.4793546179E-02     7.4765585975E-02
     7.4737646668E-02     7.4709728234E-02     7.4681830651E-02     7.4653953895E-02
     7.4626097942E-02     7.4598262769E-02     7.4570448353E-02     7.4542654672E-02
     7.4514881700E-02     7.4487129417E-02     7.4459397797E-02     7.4431686819E-02
     7.4403996460E-02     7.4376326695E-02     7.4348677503E-02     7.4321048861E-02
     7.4293440744E-02     7.4265853132E-02     7.4238286000E-02     7.4210739326E-02
     7.4183213087E-02     7.4155707261E-02     7.4128221825E-02     7.4100756756E-02
     7.4073312031E-02     7.4045887628E-02     7.4018483525E-02     7.3991099698E-02
     7.3963736126E-02     7.3936392785E-02     7.3909069654E-02     7.3881766710E-02
     7.3854483930E-02     7.3827221293E-02     7.3799978776E-02     7.3772756357E-02
     7.3745554013E-02     7.3718371723E-02     7.3691209463E-02     7.3664067213E-02
     7.3636944950E-02     7.3609842651E-02     7.3582760296E-02     7.3555697861E-02
     7.3528655325E-02     7.3501632666E-02     7.3474629862E-02     7.3447646891E-02
     7.3420683731E-02     7.3393740361E-02     7.3366816758E-02     7.3339912902E-02
     7.3313028770E-02     7.3286164340E-02     7.3259319591E-02     7.3232494502E-02
     7.3205689050E-02     7.3178903214E-02     7.3152136973E-02     7.3125390305E-02
     7.3098663188E-02     7.3071955602E-02     7.3045267525E-02     7.3018598935E-02
     7.2991949812E-02     7.2965320133E-02     7.2938709877E-02     7.2912119024E-02
     7.2885547552E-02     7.2858995440E-02     7.2832462667E-02     7.2805949211E-02
     7.2779455052E-02     7.2752980169E-02     7.2726524540E-02     7.2700088144E-02
     7.2673670961E-02     7.2647272969E-02     7.2620894148E-02     7.2594534477E-02
     7.2568193935E-02     7.2541872500E-02     7.2515570154E-02     7.2489286873E-02
     7.2463022639E-02     7.2436777430E-02     7.2410551225E-02     7.2384344004E-02
     7.2358155747E-02     7.2331986432E-02     7.2305836039E-02     7.2279704548E-02
     7.2253591938E-02     7.2227498188E-02     7.2201423279E-02     7.2175367190E-02
     7.2149329900E-02     7.2123311390E-02     7.2097311638E-02     7.2071330625E-02
     7.2045368330E-02     7.2019424733E-02     7.1993499814E-02     7.1967593553E-02
     7.1941705929E-02     7.1915836923E-02     7.1889986515E-02     7.1864154683E-02
     7.1838341409E-02     7.1812546673E-02     7.1786770454E-02     7.1761012732E-02
     7.1735273488E-02     7.1709552701E-02     7.1683850353E-02     7.1658166422E-02
     7.1632500890E-02     7.1606853736E-02     7.1581224940E-02     7.1555614484E-02
     7.1530022348E-02     7.1504448510E-02     7.1478892953E-02     7.1453355657E-02
     7.1427836601E-02     7.1402335767E-02     7.1376853135E-02     7.1351388685E-02
     7.1325942398E-02     7.1300514254E-02     7.1275104235E-02     7.1249712321E-02
     7.1224338491E-02     7.1198982728E-02     7.1173645012E-02     7.1148325323E-02
     7.1123023643E-02     7.1097739952E-02     7.1072474230E-02     7.1047226460E-02
     7.1021996621E-02     7.0996784694E-02     7.0971590661E-02     7.0946414503E-02
     7.0921256200E-02     7.0896115733E-02     7.0870993084E-02     7.0845888234E-02
     7.0820801163E-02     7.0795731853E-02     7.0770680284E-02     7.0745646439E-02
     7.0720630298E-02     7.0695631843E-02     7.0670651054E-02     7.0645687914E-02
     7.0620742402E-02     7.0595814502E-02     7.0570904193E-02     7.0546011458E-02
     7.0521136278E-02     7.0496278634E-02     7.0471438507E-02     7.0446615880E-02
     7.0421810734E-02     7.0397023050E-02     7.0372252809E-02     7.0347499994E-02
     7.0322764586E-02     7.0298046567E-02     7.0273345918E-02     7.0248662622E-02
     7.0223996659E-02     7.0199348011E-02     7.0174716661E-02     7.0150102590E-02
     7.0125505780E-02     7.0100926212E-02     7.0076363870E-02     7.0051818733E-02
     7.0027290786E-02     7.0002780008E-02     6.9978286383E-02     6.9953809893E-02
     6.9929350519E-02     6.9904908243E-02     6.9880483048E-02     6.9856074916E-02
     6.9831683828E-02     6.9807309767E-02     6.9782952716E-02     6.9758612656E-02
     6.9734289569E-02     6.9709983438E-02     6.9685694245E-02     6.9661421973E-02
     6.9637166603E-02     6.9612928118E-02     6.9588706501E-02     6.9564501733E-02
     6.9540313798E-02     6.9516142678E-02     6.9491988354E-02     6.9467850811E-02
     6.9443730029E-02     6.9419625992E-02     6.9395538683E-02     6.9371468083E-02
     6.9347414176E-02     6.9323376944E-02     6.9299356370E-02     6.9275352436E-02
     6.9251365126E-02     6.9227394421E-02     6.9203440306E-02     6.9179502762E-02
     6.9155581772E-02     6.9131677319E-02     6.9107789386E-02     6.9083917956E-02
     6.9060063012E-02     6.9036224537E-02     6.9012402513E-02     6.8988596924E-02
     6.8964807753E-02     6.8941034982E-02     6.8917278595E-02     6.8893538575E-02
     6.8869814905E-02     6.8846107568E-02     6.8822416546E-02     6.8798741824E-02
     6.8775083385E-02     6.8751441211E-02     6.8727815286E-02     6.8704205594E-02
     6.8680612117E-02     6.8657034838E-02     6.8633473742E-02     6.8609928811E-02
     6.8586400029E-02     6.8562887379E-02     6.8539390844E-02     6.8515910409E-02
     6.8492446056E-02     6.8468997769E-02     6.8445565532E-02     6.8422149327E-02
     6.8398749139E-02     6.8375364952E-02     6.8351996748E-02     6.8328644511E-02
     6.8305308225E-02     6.8281987874E-02     6.8258683442E-02     6.8235394911E-02
     6.8212122266E-02     6.8188865491E-02     6.8165624568E-02     6.8142399483E-02
     6.8119190219E-02     6.8095996760E-02     6.8072819089E-02     6.8049657191E-02
     6.8026511049E-02     6.8003380647E-02     6.7980265970E-02     6.7957167001E-02
     6.7934083724E-02     6.7911016123E-02     6.7887964183E-02     6.7864927887E-02
     6.7841907220E-02     6.7818902165E-02     6.7795912706E-02     6.7772938829E-02
     6.7749980516E-02     6.7727037753E-02     6.7704110523E-02     6.7681198810E-02
     6.7658302599E-02     6.7635421875E-02     6.7612556621E-02     6.7589706821E-02
     6.7566872461E-02     6.7544053524E-02     6.7521249994E-02     6.7498461857E-02
     6.7475689097E-02     6.7452931698E-02     6.7430189644E-02     6.7407462920E-02
     6.7384751511E-02     6.7362055400E-02     6.7339374574E-02     6.7316709015E-02
     6.7294058709E-02     6.7271423641E-02     6.7248803794E-02     6.7226199154E-02
     6.7203609706E-02     6.7181035433E-02     6.7158476321E-02     6.7135932354E-02
     6.7113403518E-02     6.7090889797E-02     6.7068391175E-02     6.7045907638E-02
     6.7023439170E-02     6.7000985757E-02     6.6978547382E-02     6.6956124032E-02
     6.6933715691E-02     6.6911322343E-02     6.6888943974E-02     6.6866580570E-02
     6.6844232114E-02     6.6821898591E-02     6.6799579988E-02     6.6777276288E-02
     6.6754987478E-02     6.6732713541E-02     6.6710454464E-02     6.6688210231E-02
     6.6665980828E-02     6.6643766239E-02     6.6621566450E-02     6.6599381446E-02
     6.6577211213E-02     6.6555055735E-02     6.6532914998E-02     6.6510788987E-02
     6.6488677687E-02     6.6466581085E-02     6.6444499164E-02     6.6422431911E-02
     6.6400379311E-02     6.6378341349E-02     6.6356318011E-02     6.6334309281E-02
     6.6312315147E-02     6.6290335593E-02     6.6268370604E-02     6.6246420167E-02
     6.6224484266E-02     6.6202562888E-02     6.6180656017E-02     6.6158763640E-02
     6.6136885742E-02     6.6115022309E-02     6.6093173326E-02     6.6071338779E-02
     6.6049518654E-02     6.6027712936E-02     6.6005921612E-02     6.5984144666E-02
     6.5962382086E-02     6.5940633855E-02     6.5918899962E-02     6.5897180390E-02
     6.5875475126E-02     6.5853784157E-02     6.5832107467E-02     6.5810445042E-02
     6.5788796870E-02     6.5767162934E-02     6.5745543223E-02     6.5723937721E-02
     6.5702346414E-02     6.5680769289E-02     6.5659206331E-02     6.5637657527E-02
     6.5616122862E-02     6.5594602323E-02     6.5573095896E-02     6.5551603567E-02
     6.5530125322E-02     6.5508661148E-02     6.5487211029E-02     6.5465774954E-02
     6.5444352907E-02     6.5422944875E-02     6.5401550845E-02     6.5380170802E-02
     6.5358804733E-02     6.5337452625E-02     6.5316114462E-02     6.5294790233E-02
     6.5273479923E-02     6.5252183518E-02     6.5230901006E-02     6.5209632372E-02
     6.5188377602E-02     6.5167136684E-02     6.5145909604E-02     6.5124696348E-02
     6.5103496902E-02     6.5082311254E-02     6.5061139390E-02     6.5039981295E-02
     6.5018836958E-02     6.4997706365E-02     6.4976589501E-02     6.4955486354E-02
     6.4934396910E-02     6.4913321157E-02     6.4892259080E-02     6.4871210666E-02
     6.4850175903E-02     6.4829154776E-02     6.4808147273E-02     6.4787153380E-02
     6.4766173084E-02     6.4745206372E-02     6.4724253231E-02     6.4703313647E-02
     6.4682387608E-02     6.4661475100E-02     6.4640576110E-02     6.4619690625E-02
     6.4598818632E-02     6.4577960117E-02     6.4557115069E-02     6.4536283473E-02
     6.4515465317E-02     6.4494660588E-02     6.4473869273E-02     6.4453091358E-02
     6.4432326831E-02     6.4411575679E-02     6.4390837889E-02     6.4370113448E-02
     6.4349402344E-02     6.4328704562E-02     6.4308020091E-02     6.4287348918E-02
     6.4266691029E-02     6.4246046413E-02     6.4225415056E-02     6.4204796945E-02
     6.4184192068E-02     6.4163600412E-02     6.4143021964E-02     6.4122456712E-02
     6.4101904642E-02     6.4081365743E-02     6.4060840001E-02     6.4040327404E-02
     6.4019827940E-02     6.3999341595E-02     6.3978868357E-02     6.3958408214E-02
     6.3937961152E-02     6.3917527160E-02     6.3897106225E-02     6.3876698334E-02
     6.3856303475E-02     6.3835921635E-02     6.3815552803E-02     6.3795196964E-02
     6.3774854108E-02     6.3754524222E-02     6.3734207292E-02     6.3713903308E-02
     6.3693612256E-02     6.3673334124E-02     6.3653068900E-02     6.3632816571E-02
     6.3612577126E-02     6.3592350551E-02     6.3572136835E-02     6.3551935966E-02
     6.3531747930E-02     6.3511572716E-02     6.3491410312E-02     6.3471260706E-02
     6.3451123884E-02     6.3430999836E-02     6.3410888549E-02     6.3390790011E-02
     6.3370704209E-02     6.3350631132E-02     6.3330570767E-02     6.3310523103E-02
     6.3290488128E-02     6.3270465828E-02     6.3250456193E-02     6.3230459211E-02
     6.3210474868E-02     6.3190503154E-02     6.3170544057E-02     6.3150597564E-02
     6.3130663663E-02     6.3110742343E-02     6.3090833591E-02     6.3070937396E-02
     6.3051053746E-02     6.3031182630E-02     6.3011324034E-02     6.2991477948E-02
     6.2971644359E-02     6.2951823256E-02     6.2932014627E-02     6.2912218460E-02
     6.2892434743E-02     6.2872663465E-02     6.2852904615E-02     6.2833158179E-02
     6.2813424147E-02     6.2793702507E-02     6.2773993247E-02     6.2754296355E-02
     6.2734611820E-02     6.2714939631E-02     6.2695279775E-02     6.2675632242E-02
     6.2655997019E-02     6.2636374094E-02     6.2616763458E-02     6.2597165097E-02
     6.2577579000E-02     6.2558005156E-02     6.2538443553E-02     6.2518894181E-02
     6.2499357026E-02     6.2479832079E-02     6.2460319327E-02     6.2440818759E-02
     6.2421330363E-02     6.2401854129E-02     6.2382390045E-02     6.2362938099E-02
     6.2343498280E-02     6.2324070578E-02     6.2304654979E-02     6.2285251474E-02
     6.2265860051E-02     6.2246480698E-02     6.2227113405E-02     6.2207758160E-02
     6.2188414951E-02     6.2169083769E-02     6.2149764600E-02     6.2130457435E-02
     6.2111162262E-02     6.2091879070E-02     6.2072607847E-02     6.2053348583E-02
     6.2034101267E-02     6.2014865886E-02     6.1995642431E-02     6.1976430891E-02
     6.1957231253E-02     6.1938043507E-02     6.1918867642E-02     6.1899703647E-02
     6.1880551511E-02     6.1861411223E-02     6.1842282772E-02     6.1823166146E-02
     6.1804061336E-02     6.1784968330E-02     6.1765887117E-02     6.1746817686E-02
     6.1727760026E-02     6.1708714126E-02     6.1689679976E-02     6.1670657565E-02
     6.1651646882E-02     6.1632647915E-02     6.1613660654E-02     6.1594685089E-02
     6.1575721208E-02     6.1556769001E-02     6.1537828457E-02     6.1518899564E-02
     6.1499982314E-02     6.1481076693E-02     6.1462182693E-02     6.1443300302E-02
     6.1424429510E-02     6.1405570305E-02     6.1386722678E-02     6.1367886617E-02
     6.1349062112E-02     6.1330249152E-02     6.1311447726E-02     6.1292657825E-02
     6.1273879437E-02     6.1255112552E-02     6.1236357160E-02     6.1217613249E-02
     6.1198880809E-02     6.1180159830E-02     6.1161450301E-02     6.1142752211E-02
     6.1124065551E-02     6.1105390310E-02     6.1086726476E-02     6.1068074041E-02
     6.1049432993E-02     6.1030803321E-02     6.1012185016E-02     6.0993578068E-02
     6.0974982465E-02     6.0956398197E-02     6.0937825254E-02     6.0919263626E-02
     6.0900713302E-02     6.0882174272E-02     6.0863646526E-02     6.0845130053E-02
     6.0826624843E-02     6.0808130886E-02     6.0789648171E-02     6.0771176689E-02
     6.0752716429E-02     6.0734267380E-02     6.0715829534E-02     6.0697402878E-02
     6.0678987404E-02     6.0660583101E-02     6.0642189959E-02     6.0623807967E-02
     6.0605437116E-02     6.0587077396E-02     6.0568728796E-02     6.0550391306E-02
     6.0532064916E-02     6.0513749617E-02     6.0495445397E-02     6.0477152248E-02
     6.0458870158E-02     6.0440599119E-02     6.0422339119E-02     6.0404090149E-02
     6.0385852199E-02     6.0367625259E-02     6.0349409319E-02     6.0331204369E-02
     6.0313010399E-02     6.0294827399E-02     6.0276655360E-02     6.0258494270E-02
     6.0240344122E-02     6.0222204903E-02     6.0204076606E-02     6.0185959219E-02
     6.0167852733E-02     6.0149757138E-02     6.0131672424E-02     6.0113598582E-02
     6.0095535602E-02     6.0077483474E-02     6.0059442187E-02     6.0041411733E-02
     6.0023392102E-02     6.0005383283E-02     5.9987385268E-02     5.9969398046E-02
     5.9951421608E-02     5.9933455944E-02     5.9915501044E-02     5.9897556898E-02
     5.9879623498E-02     5.9861700833E-02     5.9843788894E-02     5.9825887671E-02
     5.9807997154E-02     5.9790117334E-02     5.9772248202E-02     5.9754389747E-02
     5.9736541960E-02     5.9718704832E-02     5.9700878353E-02     5.9683062514E-02
     5.9665257304E-02     5.9647462715E-02     5.9629678737E-02     5.9611905360E-02
     5.9594142576E-02     5.9576390373E-02     5.9558648744E-02     5.9540917679E-02
     5.9523197168E-02     5.9505487201E-02     5.9487787770E-02     5.9470098865E-02
     5.9452420477E-02     5.9434752595E-02     5.9417095212E-02     5.9399448317E-02
     5.9381811901E-02     5.9364185955E-02     5.9346570470E-02     5.9328965436E-02
     5.9311370843E-02     5.9293786684E-02     5.9276212947E-02     5.9258649625E-02
     5.9241096707E-02     5.9223554185E-02     5.9206022050E-02     5.9188500291E-02
     5.9170988900E-02     5.9153487869E-02     5.9135997186E-02     5.9118516844E-02
     5.9101046833E-02     5.9083587144E-02     5.9066137768E-02     5.9048698696E-02
     5.9031269918E-02     5.9013851426E-02     5.8996443211E-02     5.8979045262E-02
     5.8961657572E-02     5.8944280131E-02     5.8926912930E-02     5.8909555960E-02
     5.8892209212E-02     5.8874872677E-02     5.8857546346E-02     5.8840230210E-02
     5.8822924260E-02     5.8805628487E-02     5.8788342882E-02     5.8771067436E-02
     5.8753802140E-02     5.8736546985E-02     5.8719301962E-02     5.8702067063E-02
     5.8684842278E-02     5.8667627599E-02     5.8650423016E-02     5.8633228521E-02
     5.8616044104E-02     5.8598869758E-02     5.8581705473E-02     5.8564551240E-02
     5.8547407050E-02     5.8530272895E-02     5.8513148766E-02     5.8496034654E-02
     5.8478930551E-02     5.8461836447E-02     5.8444752333E-02     5.8427678201E-02
     5.8410614043E-02     5.8393559849E-02     5.8376515611E-02     5.8359481320E-02
     5.8342456967E-02     5.8325442544E-02     5.8308438042E-02     5.8291443452E-02
     5.8274458766E-02     5.8257483974E-02     5.8240519069E-02     5.8223564042E-02
     5.8206618883E-02     5.8189683586E-02     5.8172758140E-02     5.8155842537E-02
     5.8138936769E-02     5.8122040826E-02     5.8105154702E-02     5.8088278386E-02
     5.8071411871E-02     5.8054555148E-02     5.8037708208E-02     5.8020871043E-02
     5.8004043644E-02     5.7987226003E-02     5.7970418111E-02     5.7953619960E-02
     5.7936831542E-02     5.7920052848E-02     5.7903283869E-02     5.7886524597E-02
     5.7869775024E-02     5.7853035141E-02     5.7836304940E-02     5.7819584413E-02
     5.7802873550E-02     5.7786172344E-02     5.7769480787E-02     5.7752798869E-02
     5.7736126583E-02     5.7719463920E-02     5.7702810872E-02     5.7686167431E-02
     5.7669533588E-02     5.7652909335E-02     5.7636294664E-02     5.7619689566E-02
     5.7603094033E-02     5.7586508057E-02     5.7569931630E-02     5.7553364743E-02
     5.7536807389E-02     5.7520259558E-02     5.7503721243E-02     5.7487192436E-02
     5.7470673127E-02     5.7454163310E-02     5.7437662976E-02     5.7421172117E-02
     5.7404690724E-02     5.7388218790E-02     5.7371756306E-02     5.7355303265E-02
     5.7338859657E-02     5.7322425475E-02     5.7306000712E-02     5.7289585358E-02
     5.7273179405E-02     5.7256782847E-02     5.7240395674E-02     5.7224017878E-02
     5.7207649452E-02     5.7191290387E-02     5.7174940676E-02     5.7158600310E-02
     5.7142269281E-02     5.7125947582E-02     5.7109635204E-02     5.7093332139E-02
     5.7077038380E-02     5.7060753918E-02     5.7044478746E-02     5.7028212855E-02
     5.7011956238E-02     5.6995708887E-02     5.6979470793E-02     5.6963241949E-02
     5.6947022347E-02     5.6930811979E-02     5.6914610838E-02     5.6898418914E-02
     5.6882236201E-02     5.6866062691E-02     5.6849898375E-02     5.6833743246E-02
     5.6817597296E-02     5.6801460518E-02     5.6785332903E-02     5.6769214443E-02
     5.6753105132E-02     5.6737004960E-02     5.6720913920E-02     5.6704832006E-02
     5.6688759207E-02     5.6672695518E-02     5.6656640930E-02     5.6640595436E-02
     5.6624559027E-02     5.6608531696E-02     5.6592513436E-02     5.6576504239E-02
     5.6560504096E-02     5.6544513001E-02     5.6528530945E-02     5.6512557921E-02
     5.6496593922E-02     5.6480638939E-02     5.6464692965E-02     5.6448755993E-02
     5.6432828015E-02     5.6416909022E-02     5.6400999008E-02     5.6385097966E-02
     5.6369205886E-02     5.6353322762E-02     5.6337448587E-02     5.6321583352E-02
     5.6305727051E-02     5.6289879675E-02     5.6274041217E-02     5.6258211669E-02
     5.6242391025E-02     5.6226579276E-02     5.6210776415E-02     5.6194982434E-02
     5.6179197327E-02     5.6163421085E-02     5.6147653701E-02     5.6131895168E-02
     5.6116145478E-02     5.6100404624E-02     5.6084672598E-02     5.6068949393E-02
     5.6053235001E-02     5.6037529415E-02     5.6021832628E-02     5.6006144633E-02
     5.5990465421E-02     5.5974794986E-02     5.5959133319E-02     5.5943480415E-02
     5.5927836265E-02     5.5912200862E-02     5.5896574199E-02     5.5880956268E-02
     5.5865347062E-02     5.5849746575E-02     5.5834154797E-02     5.5818571723E-02
     5.5802997345E-02     5.5787431655E-02     5.5771874647E-02     5.5756326313E-02
     5.5740786645E-02     5.5725255638E-02     5.5709733282E-02     5.5694219572E-02
     5.5678714500E-02     5.5663218058E-02     5.5647730240E-02     5.5632251039E-02
     5.5616780446E-02     5.5601318455E-02     5.5585865059E-02     5.5570420251E-02
     5.5554984023E-02     5.5539556369E-02     5.5524137280E-02     5.5508726751E-02
     5.5493324773E-02     5.5477931341E-02     5.5462546446E-02     5.5447170081E-02
     5.5431802240E-02     5.5416442916E-02     5.5401092101E-02     5.5385749788E-02
     5.5370415970E-02     5.5355090640E-02     5.5339773792E-02     5.5324465417E-02
     5.5309165510E-02     5.5293874062E-02     5.5278591068E-02     5.5263316519E-02
     5.5248050410E-02     5.5232792732E-02     5.5217543480E-02     5.5202302645E-02
     5.5187070222E-02     5.5171846202E-02     5.5156630580E-02     5.5141423348E-02
     5.5126224499E-02     5.5111034027E-02     5.5095851924E-02     5.5080678183E-02
     5.5065512798E-02     5.5050355762E-02     5.5035207068E-02     5.5020066708E-02
     5.5004934676E-02     5.4989810966E-02     5.4974695570E-02     5.4959588481E-02
     5.4944489693E-02     5.4929399199E-02     5.4914316992E-02     5.4899243064E-02
     5.4884177410E-02     5.4869120023E-02     5.4854070895E-02     5.4839030020E-02
     5.4823997391E-02     5.4808973002E-02     5.4793956845E-02     5.4778948914E-02
     5.4763949201E-02     5.4748957702E-02     5.4733974407E-02     5.4718999312E-02
     5.4704032408E-02     5.4689073690E-02     5.4674123150E-02     5.4659180783E-02
     5.4644246580E-02     5.4629320536E-02     5.4614402644E-02     5.4599492898E-02
     5.4584591289E-02     5.4569697813E-02     5.4554812461E-02     5.4539935229E-02
     5.4525066108E-02     5.4510205092E-02     5.4495352175E-02     5.4480507350E-02
     5.4465670611E-02     5.4450841950E-02     5.4436021362E-02     5.4421208839E-02
     5.4406404375E-02     5.4391607964E-02     5.4376819599E-02     5.4362039273E-02
     5.4347266979E-02     5.4332502712E-02     5.4317746465E-02     5.4302998231E-02
     5.4288258003E-02     5.4273525776E-02     5.4258801542E-02     5.4244085295E-02
     5.4229377029E-02     5.4214676737E-02     5.4199984413E-02     5.4185300050E-02
     5.4170623641E-02     5.4155955181E-02     5.4141294663E-02     5.4126642079E-02
     5.4111997425E-02     5.4097360693E-02     5.4082731878E-02     5.4068110972E-02
     5.4053497969E-02     5.4038892862E-02     5.4024295647E-02     5.4009706315E-02
     5.3995124861E-02     5.3980551278E-02     5.3965985560E-02     5.3951427700E-02
     5.3936877692E-02     5.3922335531E-02     5.3907801209E-02     5.3893274719E-02
     5.3878756057E-02     5.3864245215E-02     5.3849742187E-02     5.3835246967E-02
     5.3820759549E-02     5.3806279926E-02     5.3791808091E-02     5.3777344040E-02
     5.3762887764E-02     5.3748439259E-02     5.3733998518E-02     5.3719565534E-02
     5.3705140302E-02     5.3690722814E-02     5.3676313066E-02     5.3661911050E-02
     5.3647516761E-02     5.3633130191E-02     5.3618751336E-02     5.3604380189E-02
     5.3590016743E-02     5.3575660992E-02     5.3561312931E-02     5.3546972553E-02
     5.3532639851E-02     5.3518314820E-02     5.3503997454E-02     5.3489687746E-02
     5.3475385691E-02     5.3461091281E-02     5.3446804512E-02     5.3432525376E-02
     5.3418253868E-02     5.3403989982E-02     5.3389733712E-02     5.3375485050E-02
     5.3361243992E-02     5.3347010532E-02     5.3332784662E-02     5.3318566378E-02
     5.3304355673E-02     5.3290152540E-02     5.3275956975E-02     5.3261768970E-02
     5.3247588521E-02     5.3233415620E-02     5.3219250262E-02     5.3205092440E-02
     5.3190942150E-02     5.3176799384E-02     5.3162664137E-02     5.3148536403E-02
     5.3134416175E-02     5.3120303449E-02     5.3106198217E-02     5.3092100473E-02
     5.3078010213E-02     5.3063927430E-02     5.3049852118E-02     5.3035784270E-02
     5.3021723882E-02     5.3007670947E-02     5.2993625459E-02     5.2979587413E-02
     5.2965556802E-02     5.2951533620E-02     5.2937517862E-02     5.2923509522E-02
     5.2909508594E-02     5.2895515071E-02     5.2881528949E-02     5.2867550220E-02
     5.2853578880E-02     5.2839614923E-02     5.2825658342E-02     5.2811709132E-02
     5.2797767287E-02     5.2783832801E-02     5.2769905669E-02     5.2755985883E-02
     5.2742073440E-02     5.2728168332E-02     5.2714270554E-02     5.2700380101E-02
     5.2686496966E-02     5.2672621144E-02     5.2658752629E-02     5.2644891414E-02
     5.2631037496E-02     5.2617190867E-02     5.2603351521E-02     5.2589519454E-02
     5.2575694659E-02     5.2561877131E-02     5.2548066864E-02     5.2534263852E-02
     5.2520468089E-02     5.2506679570E-02     5.2492898290E-02     5.2479124241E-02
     5.2465357420E-02     5.2451597819E-02     5.2437845434E-02     5.2424100258E-02
     5.2410362286E-02     5.2396631513E-02     5.2382907932E-02     5.2369191538E-02
     5.2355482326E-02     5.2341780289E-02     5.2328085422E-02     5.2314397720E-02
     5.2300717177E-02     5.2287043787E-02     5.2273377544E-02     5.2259718444E-02
     5.2246066480E-02     5.2232421646E-02     5.2218783938E-02     5.2205153350E-02
     5.2191529876E-02     5.2177913510E-02     5.2164304247E-02     5.2150702082E-02
     5.2137107008E-02     5.2123519021E-02     5.2109938115E-02     5.2096364283E-02
     5.2082797522E-02     5.2069237824E-02     5.2055685186E-02     5.2042139600E-02
     5.2028601062E-02     5.2015069567E-02     5.2001545108E-02     5.1988027680E-02
     5.1974517277E-02     5.1961013895E-02     5.1947517528E-02     5.1934028170E-02
     5.1920545816E-02     5.1907070460E-02     5.1893602097E-02     5.1880140722E-02
     5.1866686329E-02     5.1853238912E-02     5.1839798466E-02     5.1826364987E-02
     5.1812938467E-02     5.1799518903E-02     5.1786106288E-02     5.1772700617E-02
     5.1759301885E-02     5.1745910086E-02     5.1732525216E-02     5.1719147268E-02
     5.1705776237E-02     5.1692412118E-02     5.1679054905E-02     5.1665704594E-02
     5.1652361179E-02     5.1639024654E-02     5.1625695014E-02     5.1612372254E-02
     5.1599056368E-02     5.1585747352E-02     5.1572445199E-02     5.1559149906E-02
     5.1545861465E-02     5.1532579872E-02     5.1519305122E-02     5.1506037209E-02
     5.1492776129E-02     5.1479521875E-02     5.1466274443E-02     5.1453033827E-02
     5.1439800022E-02     5.1426573022E-02     5.1413352824E-02     5.1400139420E-02
     5.1386932807E-02     5.1373732978E-02     5.1360539929E-02     5.1347353654E-02
     5.1334174149E-02     5.1321001407E-02     5.1307835424E-02     5.1294676195E-02
     5.1281523714E-02     5.1268377976E-02     5.1255238976E-02     5.1242106709E-02
     5.1228981169E-02     5.1215862352E-02     5.1202750252E-02     5.1189644864E-02
     5.1176546183E-02     5.1163454204E-02     5.1150368922E-02     5.1137290331E-02
     5.1124218426E-02     5.1111153203E-02     5.1098094656E-02     5.1085042780E-02
     5.1071997570E-02     5.1058959021E-02     5.1045927127E-02     5.1032901884E-02
     5.1019883287E-02     5.1006871330E-02     5.0993866008E-02     5.0980867317E-02
     5.0967875251E-02     5.0954889805E-02     5.0941910974E-02     5.0928938753E-02
     5.0915973137E-02     5.0903014122E-02     5.0890061701E-02     5.0877115870E-02
     5.0864176624E-02     5.0851243957E-02     5.0838317866E-02     5.0825398344E-02
     5.0812485387E-02     5.0799578990E-02     5.0786679148E-02     5.0773785855E-02
     5.0760899108E-02     5.0748018900E-02     5.0735145227E-02     5.0722278084E-02
     5.0709417465E-02     5.0696563367E-02     5.0683715784E-02     5.0670874711E-02
     5.0658040143E-02     5.0645212075E-02     5.0632390502E-02     5.0619575420E-02
     5.0606766823E-02     5.0593964706E-02     5.0581169065E-02     5.0568379895E-02
     5.0555597190E-02     5.0542820946E-02     5.0530051158E-02     5.0517287821E-02
     5.0504530930E-02     5.0491780481E-02     5.0479036467E-02     5.0466298886E-02
     5.0453567730E-02     5.0440842997E-02     5.0428124681E-02     5.0415412776E-02
     5.0402707279E-02     5.0390008184E-02     5.0377315487E-02     5.0364629182E-02
     5.0351949266E-02     5.0339275732E-02     5.0326608577E-02     5.0313947795E-02
     5.0301293381E-02     5.0288645332E-02     5.0276003641E-02     5.0263368305E-02
     5.0250739317E-02     5.0238116675E-02     5.0225500373E-02     5.0212890405E-02
     5.0200286768E-02     5.0187689456E-02     5.0175098466E-02     5.0162513791E-02
     5.0149935427E-02     5.0137363370E-02     5.0124797615E-02     5.0112238157E-02
     5.0099684991E-02     5.0087138113E-02     5.0074597517E-02     5.0062063200E-02
     5.0049535156E-02     5.0037013381E-02     5.0024497870E-02     5.0011988618E-02
     4.9999485621E-02     4.9986988874E-02     4.9974498372E-02     4.9962014110E-02
     4.9949536085E-02     4.9937064291E-02     4.9924598723E-02     4.9912139377E-02
     4.9899686248E-02     4.9887239332E-02     4.9874798624E-02     4.9862364120E-02
     4.9849935813E-02     4.9837513701E-02     4.9825097779E-02     4.9812688041E-02
     4.9800284483E-02     4.9787887101E-02     4.9775495889E-02     4.9763110844E-02
     4.9750731961E-02     4.9738359235E-02     4.9725992661E-02     4.9713632236E-02
     4.9701277953E-02     4.9688929810E-02     4.9676587800E-02     4.9664251920E-02
     4.9651922166E-02     4.9639598532E-02     4.9627281013E-02     4.9614969606E-02
     4.9602664306E-02     4.9590365109E-02     4.9578072009E-02     4.9565785002E-02
     4.9553504084E-02     4.9541229250E-02     4.9528960496E-02     4.9516697817E-02
     4.9504441209E-02     4.9492190667E-02     4.9479946186E-02     4.9467707762E-02
     4.9455475392E-02     4.9443249069E-02     4.9431028790E-02     4.9418814550E-02
     4.9406606345E-02     4.9394404170E-02     4.9382208021E-02     4.9370017893E-02
     4.9357833782E-02     4.9345655683E-02     4.9333483592E-02     4.9321317505E-02
     4.9309157417E-02     4.9297003324E-02     4.9284855220E-02     4.9272713103E-02
     4.9260576966E-02     4.9248446807E-02     4.9236322620E-02     4.9224204402E-02
     4.9212092147E-02     4.9199985851E-02     4.9187885510E-02     4.9175791120E-02
     4.9163702675E-02     4.9151620173E-02     4.9139543608E-02     4.9127472976E-02
     4.9115408272E-02     4.9103349493E-02     4.9091296633E-02     4.9079249689E-02
     4.9067208656E-02     4.9055173530E-02     4.9043144307E-02     4.9031120982E-02
     4.9019103550E-02     4.9007092008E-02     4.8995086351E-02     4.8983086574E-02
     4.8971092675E-02     4.8959104647E-02     4.8947122487E-02     4.8935146191E-02
     4.8923175754E-02     4.8911211172E-02     4.8899252441E-02     4.8887299556E-02
     4.8875352513E-02     4.8863411308E-02     4.8851475936E-02     4.8839546394E-02
     4.8827622677E-02     4.8815704780E-02     4.8803792700E-02     4.8791886432E-02
     4.8779985972E-02     4.8768091315E-02     4.8756202458E-02     4.8744319396E-02
     4.8732442126E-02     4.8720570642E-02     4.8708704940E-02     4.8696845017E-02
     4.8684990867E-02     4.8673142488E-02     4.8661299874E-02     4.8649463022E-02
     4.8637631927E-02     4.8625806585E-02     4.8613986992E-02     4.8602173143E-02
     4.8590365035E-02     4.8578562663E-02     4.8566766023E-02     4.8554975111E-02
     4.8543189923E-02     4.8531410455E-02     4.8519636702E-02     4.8507868660E-02
     4.8496106325E-02     4.8484349693E-02     4.8472598760E-02     4.8460853522E-02
     4.8449113974E-02     4.8437380112E-02     4.8425651933E-02     4.8413929432E-02
     4.8402212605E-02     4.8390501448E-02     4.8378795956E-02     4.8367096127E-02
     4.8355401954E-02     4.8343713436E-02     4.8332030566E-02     4.8320353342E-02
     4.8308681759E-02     4.8297015813E-02     4.8285355501E-02     4.8273700817E-02
     4.8262051758E-02     4.8250408319E-02     4.8238770498E-02     4.8227138289E-02
     4.8215511688E-02     4.8203890693E-02     4.8192275297E-02     4.8180665498E-02
     4.8169061292E-02     4.8157462674E-02     4.8145869640E-02     4.8134282186E-02
     4.8122700309E-02     4.8111124004E-02     4.8099553267E-02     4.8087988094E-02
     4.8076428482E-02     4.8064874425E-02     4.8053325921E-02     4.8041782965E-02
     4.8030245553E-02     4.8018713682E-02     4.8007187346E-02     4.7995666543E-02
     4.7984151268E-02     4.7972641517E-02     4.7961137286E-02     4.7949638572E-02
     4.7938145370E-02     4.7926657676E-02     4.7915175487E-02     4.7903698798E-02
     4.7892227606E-02     4.7880761907E-02     4.7869301695E-02     4.7857846969E-02
     4.7846397723E-02     4.7834953954E-02     4.7823515658E-02     4.7812082831E-02
     4.7800655469E-02     4.7789233568E-02     4.7777817125E-02     4.7766406134E-02
     4.7755000593E-02     4.7743600497E-02     4.7732205843E-02     4.7720816627E-02
     4.7709432844E-02     4.7698054492E-02     4.7686681565E-02     4.7675314060E-02
     4.7663951974E-02     4.7652595302E-02     4.7641244041E-02     4.7629898186E-02
     4.7618557734E-02     4.7607222681E-02     4.7595893023E-02     4.7584568757E-02
     4.7573249877E-02     4.7561936381E-02     4.7550628265E-02     4.7539325525E-02
     4.7528028157E-02     4.7516736157E-02     4.7505449521E-02     4.7494168246E-02
     4.7482892328E-02     4.7471621762E-02     4.7460356546E-02     4.7449096675E-02
     4.7437842145E-02     4.7426592953E-02     4.7415349095E-02     4.7404110567E-02
     4.7392877366E-02     4.7381649487E-02     4.7370426926E-02     4.7359209681E-02
     4.7347997747E-02     4.7336791120E-02     4.7325589797E-02     4.7314393774E-02
     4.7303203047E-02     4.7292017613E-02     4.7280837467E-02     4.7269662605E-02
     4.7258493025E-02     4.7247328723E-02     4.7236169694E-02     4.7225015935E-02
     4.7213867442E-02     4.7202724211E-02     4.7191586240E-02     4.7180453523E-02
     4.7169326057E-02     4.7158203840E-02     4.7147086866E-02     4.7135975132E-02
     4.7124868634E-02     4.7113767370E-02     4.7102671334E-02     4.7091580524E-02
     4.7080494935E-02     4.7069414564E-02     4.7058339408E-02     4.7047269462E-02
     4.7036204723E-02     4.7025145188E-02     4.7014090852E-02     4.7003041712E-02
     4.6991997764E-02     4.6980959005E-02     4.6969925431E-02     4.6958897038E-02
     4.6947873822E-02     4.6936855781E-02     4.6925842910E-02     4.6914835206E-02
     4.6903832665E-02     4.6892835283E-02     4.6881843058E-02     4.6870855984E-02
     4.6859874059E-02     4.6848897279E-02     4.6837925640E-02     4.6826959139E-02
     4.6815997772E-02     4.6805041536E-02     4.6794090427E-02     4.6783144441E-02
     4.6772203574E-02     4.6761267824E-02     4.6750337186E-02     4.6739411658E-02
     4.6728491234E-02     4.6717575913E-02     4.6706665690E-02     4.6695760561E-02
     4.6684860524E-02     4.6673965574E-02     4.6663075708E-02     4.6652190922E-02
     4.6641311214E-02     4.6630436578E-02     4.6619567013E-02     4.6608702513E-02
     4.6597843076E-02     4.6586988699E-02     4.6576139377E-02     4.6565295107E-02
     4.6554455885E-02     4.6543621709E-02     4.6532792574E-02     4.6521968477E-02
     4.6511149415E-02     4.6500335383E-02     4.6489526379E-02     4.6478722399E-02
     4.6467923440E-02     4.6457129497E-02     4.6446340567E-02     4.6435556648E-02
     4.6424777735E-02     4.6414003825E-02     4.6403234915E-02     4.6392471001E-02
     4.6381712079E-02     4.6370958146E-02     4.6360209199E-02     4.6349465234E-02
     4.6338726247E-02     4.6327992236E-02     4.6317263197E-02     4.6306539126E-02
     4.6295820019E-02     4.6285105874E-02     4.6274396688E-02     4.6263692455E-02
     4.6252993174E-02     4.6242298840E-02     4.6231609451E-02     4.6220925002E-02
     4.6210245491E-02     4.6199570913E-02     4.6188901266E-02     4.6178236547E-02
     4.6167576751E-02     4.6156921875E-02     4.6146271916E-02     4.6135626871E-02
     4.6124986735E-02     4.6114351506E-02     4.6103721181E-02     4.6093095756E-02
     4.6082475227E-02     4.6071859591E-02     4.6061248845E-02     4.6050642985E-02
     4.6040042008E-02     4.6029445911E-02     4.6018854690E-02     4.6008268342E-02
     4.5997686864E-02     4.5987110251E-02     4.5976538502E-02     4.5965971612E-02
     4.5955409578E-02     4.5944852397E-02     4.5934300065E-02     4.5923752579E-02
     4.5913209937E-02     4.5902672133E-02     4.5892139166E-02     4.5881611031E-02
     4.5871087726E-02     4.5860569246E-02     4.5850055590E-02     4.5839546753E-02
     4.5829042732E-02     4.5818543524E-02     4.5808049126E-02     4.5797559534E-02
     4.5787074744E-02     4.5776594755E-02     4.5766119561E-02     4.5755649161E-02
     4.5745183551E-02     4.5734722727E-02     4.5724266686E-02     4.5713815425E-02
     4.5703368941E-02     4.5692927230E-02     4.5682490289E-02     4.5672058115E-02
     4.5661630704E-02     4.5651208054E-02     4.5640790161E-02     4.5630377021E-02
     4.5619968632E-02     4.5609564991E-02     4.5599166093E-02     4.5588771936E-02
     4.5578382517E-02     4.5567997832E-02     4.5557617878E-02     4.5547242652E-02
     4.5536872150E-02     4.5526506370E-02     4.5516145308E-02     4.5505788961E-02
     4.5495437326E-02     4.5485090399E-02     4.5474748177E-02     4.5464410658E-02
     4.5454077837E-02     4.5443749712E-02     4.5433426280E-02     4.5423107537E-02
     4.5412793479E-02     4.5402484105E-02     4.5392179411E-02     4.5381879393E-02
     4.5371584048E-02     4.5361293373E-02     4.5351007366E-02     4.5340726022E-02
     4.5330449339E-02     4.5320177313E-02     4.5309909942E-02     4.5299647222E-02
     4.5289389149E-02     4.5279135722E-02     4.5268886936E-02     4.5258642789E-02
     4.5248403277E-02     4.5238168397E-02     4.5227938146E-02     4.5217712522E-02
     4.5207491520E-02     4.5197275138E-02     4.5187063372E-02     4.5176856219E-02
     4.5166653677E-02     4.5156455743E-02     4.5146262412E-02     4.5136073682E-02
     4.5125889550E-02     4.5115710012E-02     4.5105535066E-02     4.5095364709E-02
     4.5085198937E-02     4.5075037747E-02     4.5064881136E-02     4.5054729102E-02
     4.5044581640E-02     4.5034438749E-02     4.5024300424E-02     4.5014166663E-02
     4.5004037463E-02     4.4993912820E-02     4.4983792731E-02     4.4973677194E-02
     4.4963566206E-02     4.4953459763E-02     4.4943357861E-02     4.4933260500E-02
     4.4923167674E-02     4.4913079381E-02     4.4902995618E-02     4.4892916382E-02
     4.4882841670E-02     4.4872771479E-02     4.4862705806E-02     4.4852644648E-02
     4.4842588001E-02     4.4832535863E-02     4.4822488230E-02     4.4812445101E-02
     4.4802406470E-02     4.4792372337E-02     4.4782342697E-02     4.4772317547E-02
     4.4762296885E-02     4.4752280708E-02     4.4742269012E-02     4.4732261795E-02
     4.4722259053E-02     4.4712260783E-02     4.4702266983E-02     4.4692277650E-02
     4.4682292780E-02     4.4672312371E-02     4.4662336419E-02     4.4652364922E-02
     4.4642397876E-02     4.4632435279E-02     4.4622477127E-02     4.4612523418E-02
     4.4602574149E-02     4.4592629316E-02     4.4582688917E-02     4.4572752949E-02
     4.4562821409E-02     4.4552894294E-02     4.4542971600E-02     4.4533053325E-02
     4.4523139467E-02     4.4513230021E-02     4.4503324985E-02     4.4493424357E-02
     4.4483528132E-02     4.4473636309E-02     4.4463748885E-02     4.4453865855E-02
     4.4443987219E-02     4.4434112971E-02     4.4424243111E-02     4.4414377633E-02
     4.4404516537E-02     4.4394659819E-02     4.4384807475E-02     4.4374959504E-02
     4.4365115901E-02     4.4355276665E-02     4.4345441792E-02     4.4335611280E-02
     4.4325785125E-02     4.4315963325E-02     4.4306145876E-02     4.4296332776E-02
     4.4286524022E-02     4.4276719611E-02     4.4266919540E-02     4.4257123807E-02
     4.4247332408E-02     4.4237545340E-02     4.4227762601E-02     4.4217984188E-02
     4.4208210098E-02     4.4198440328E-02     4.4188674875E-02     4.4178913736E-02
     4.4169156909E-02     4.4159404390E-02     4.4149656177E-02     4.4139912267E-02
     4.4130172657E-02     4.4120437345E-02     4.4110706326E-02     4.4100979599E-02
     4.4091257161E-02     4.4081539009E-02     4.4071825140E-02     4.4062115550E-02
     4.4052410239E-02     4.4042709201E-02     4.4033012436E-02     4.4023319939E-02
     4.4013631709E-02     4.4003947741E-02     4.3994268034E-02     4.3984592585E-02
     4.3974921390E-02     4.3965254448E-02     4.3955591755E-02     4.3945933308E-02
     4.3936279104E-02     4.3926629142E-02     4.3916983418E-02     4.3907341928E-02
     4.3897704672E-02     4.3888071644E-02     4.3878442844E-02     4.3868818268E-02
     4.3859197913E-02     4.3849581777E-02     4.3839969856E-02     4.3830362149E-02
     4.3820758651E-02     4.3811159361E-02     4.3801564276E-02     4.3791973393E-02
     4.3782386708E-02     4.3772804221E-02     4.3763225926E-02     4.3753651823E-02
     4.3744081908E-02     4.3734516178E-02     4.3724954631E-02     4.3715397264E-02
     4.3705844074E-02     4.3696295059E-02     4.3686750215E-02     4.3677209540E-02
     4.3667673031E-02     4.3658140686E-02     4.3648612502E-02     4.3639088476E-02
     4.3629568605E-02     4.3620052886E-02     4.3610541318E-02     4.3601033897E-02
     4.3591530620E-02     4.3582031485E-02     4.3572536489E-02     4.3563045629E-02
     4.3553558903E-02     4.3544076308E-02     4.3534597841E-02     4.3525123500E-02
     4.3515653282E-02     4.3506187184E-02     4.3496725203E-02     4.3487267337E-02
     4.3477813583E-02     4.3468363939E-02     4.3458918401E-02     4.3449476968E-02
     4.3440039636E-02     4.3430606403E-02     4.3421177265E-02     4.3411752221E-02
     4.3402331268E-02     4.3392914403E-02     4.3383501623E-02     4.3374092926E-02
     4.3364688310E-02     4.3355287770E-02     4.3345891306E-02     4.3336498913E-02
     4.3327110590E-02     4.3317726334E-02     4.3308346142E-02     4.3298970012E-02
     4.3289597940E-02     4.3280229925E-02     4.3270865964E-02     4.3261506053E-02
     4.3252150191E-02     4.3242798375E-02     4.3233450602E-02     4.3224106869E-02
     4.3214767175E-02     4.3205431515E-02     4.3196099888E-02     4.3186772292E-02
     4.3177448723E-02     4.3168129178E-02     4.3158813656E-02     4.3149502154E-02
     4.3140194669E-02     4.3130891198E-02     4.3121591739E-02     4.3112296289E-02
     4.3103004846E-02     4.3093717407E-02     4.3084433969E-02     4.3075154530E-02
     4.3065879088E-02     4.3056607639E-02     4.3047340182E-02     4.3038076713E-02
     4.3028817230E-02     4.3019561730E-02     4.3010310212E-02     4.3001062671E-02
     4.2991819107E-02     4.2982579515E-02     4.2973343894E-02     4.2964112241E-02
     4.2954884554E-02     4.2945660830E-02     4.2936441066E-02     4.2927225259E-02
     4.2918013409E-02     4.2908805510E-02     4.2899601562E-02     4.2890401562E-02
     4.2881205507E-02     4.2872013394E-02     4.2862825222E-02     4.2853640986E-02
     4.2844460686E-02     4.2835284319E-02     4.2826111881E-02     4.2816943371E-02
     4.2807778785E-02     4.2798618122E-02     4.2789461379E-02     4.2780308553E-02
     4.2771159641E-02     4.2762014643E-02     4.2752873554E-02     4.2743736372E-02
     4.2734603095E-02     4.2725473720E-02     4.2716348245E-02     4.2707226667E-02
     4.2698108985E-02     4.2688995194E-02     4.2679885293E-02     4.2670779280E-02
     4.2661677151E-02     4.2652578905E-02     4.2643484538E-02     4.2634394049E-02
     4.2625307435E-02     4.2616224693E-02     4.2607145821E-02     4.2598070817E-02
     4.2588999677E-02     4.2579932400E-02     4.2570868983E-02     4.2561809424E-02
     4.2552753720E-02     4.2543701868E-02     4.2534653867E-02     4.2525609714E-02
     4.2516569406E-02     4.2507532940E-02     4.2498500315E-02     4.2489471528E-02
     4.2480446577E-02     4.2471425458E-02     4.2462408171E-02     4.2453394711E-02
     4.2444385077E-02     4.2435379267E-02     4.2426377277E-02     4.2417379106E-02
     4.2408384751E-02     4.2399394209E-02     4.2390407479E-02     4.2381424557E-02
     4.2372445441E-02     4.2363470130E-02     4.2354498620E-02     4.2345530909E-02
     4.2336566995E-02     4.2327606875E-02     4.2318650547E-02     4.2309698008E-02
     4.2300749256E-02     4.2291804289E-02     4.2282863104E-02     4.2273925699E-02
     4.2264992072E-02     4.2256062219E-02     4.2247136139E-02     4.2238213830E-02
     4.2229295288E-02     4.2220380512E-02     4.2211469498E-02     4.2202562246E-02
     4.2193658752E-02     4.2184759014E-02     4.2175863029E-02     4.2166970796E-02
     4.2158082311E-02     4.2149197573E-02     4.2140316579E-02     4.2131439327E-02
     4.2122565814E-02     4.2113696038E-02     4.2104829997E-02     4.2095967688E-02
     4.2087109109E-02     4.2078254257E-02     4.2069403131E-02     4.2060555727E-02
     4.2051712045E-02     4.2042872080E-02     4.2034035831E-02     4.2025203296E-02
     4.2016374471E-02     4.2007549356E-02     4.1998727947E-02     4.1989910242E-02
     4.1981096239E-02     4.1972285936E-02     4.1963479329E-02     4.1954676418E-02
     4.1945877199E-02     4.1937081670E-02     4.1928289829E-02     4.1919501673E-02
     4.1910717201E-02     4.1901936410E-02     4.1893159297E-02     4.1884385860E-02
     4.1875616098E-02     4.1866850007E-02     4.1858087586E-02     4.1849328831E-02
     4.1840573741E-02     4.1831822314E-02     4.1823074547E-02     4.1814330438E-02
     4.1805589984E-02     4.1796853184E-02     4.1788120034E-02     4.1779390533E-02
     4.1770664679E-02     4.1761942469E-02     4.1753223901E-02     4.1744508972E-02
     4.1735797680E-02     4.1727090024E-02     4.1718386000E-02     4.1709685607E-02
     4.1700988841E-02     4.1692295702E-02     4.1683606187E-02     4.1674920292E-02
     4.1666238017E-02     4.1657559359E-02     4.1648884316E-02     4.1640212884E-02
     4.1631545063E-02     4.1622880850E-02     4.1614220242E-02     4.1605563238E-02
     4.1596909834E-02     4.1588260030E-02     4.1579613822E-02     4.1570971208E-02
     4.1562332187E-02     4.1553696755E-02     4.1545064911E-02     4.1536436653E-02
     4.1527811978E-02     4.1519190883E-02     4.1510573367E-02     4.1501959428E-02
     4.1493349063E-02     4.1484742270E-02     4.1476139047E-02     4.1467539391E-02
     4.1458943301E-02     4.1450350774E-02     4.1441761808E-02     4.1433176400E-02
     4.1424594549E-02     4.1416016253E-02     4.1407441508E-02     4.1398870313E-02
     4.1390302666E-02     4.1381738565E-02     4.1373178007E-02     4.1364620989E-02
     4.1356067511E-02     4.1347517569E-02     4.1338971162E-02     4.1330428288E-02
     4.1321888943E-02     4.1313353126E-02     4.1304820835E-02     4.1296292068E-02
     4.1287766822E-02     4.1279245095E-02     4.1270726885E-02     4.1262212190E-02
     4.1253701007E-02     4.1245193335E-02     4.1236689172E-02     4.1228188514E-02
     4.1219691361E-02     4.1211197709E-02     4.1202707557E-02     4.1194220903E-02
     4.1185737744E-02     4.1177258078E-02     4.1168781903E-02     4.1160309217E-02
     4.1151840017E-02     4.1143374302E-02     4.1134912070E-02     4.1126453318E-02
     4.1117998044E-02     4.1109546245E-02     4.1101097921E-02     4.1092653068E-02
     4.1084211685E-02     4.1075773769E-02     4.1067339319E-02     4.1058908332E-02
     4.1050480805E-02     4.1042056738E-02     4.1033636127E-02     4.1025218971E-02
     4.1016805267E-02     4.1008395014E-02     4.0999988209E-02     4.0991584850E-02
     4.0983184935E-02     4.0974788462E-02     4.0966395429E-02     4.0958005833E-02
     4.0949619673E-02     4.0941236946E-02     4.0932857651E-02     4.0924481785E-02
     4.0916109346E-02     4.0907740332E-02     4.0899374741E-02     4.0891012571E-02
     4.0882653819E-02     4.0874298484E-02     4.0865946564E-02     4.0857598056E-02
     4.0849252958E-02     4.0840911269E-02     4.0832572986E-02     4.0824238106E-02
     4.0815906629E-02     4.0807578552E-02     4.0799253873E-02     4.0790932589E-02
     4.0782614699E-02     4.0774300201E-02     4.0765989092E-02     4.0757681370E-02
     4.0749377034E-02     4.0741076081E-02     4.0732778510E-02     4.0724484318E-02
     4.0716193502E-02     4.0707906062E-02     4.0699621995E-02     4.0691341299E-02
     4.0683063971E-02     4.0674790011E-02     4.0666519415E-02     4.0658252182E-02
     4.0649988310E-02     4.0641727796E-02     4.0633470639E-02     4.0625216836E-02
     4.0616966386E-02     4.0608719286E-02     4.0600475535E-02     4.0592235130E-02
     4.0583998069E-02     4.0575764351E-02     4.0567533972E-02     4.0559306932E-02
     4.0551083229E-02     4.0542862859E-02     4.0534645822E-02     4.0526432114E-02
     4.0518221735E-02     4.0510014682E-02     4.0501810953E-02     4.0493610545E-02
     4.0485413458E-02     4.0477219689E-02     4.0469029236E-02     4.0460842097E-02
     4.0452658269E-02     4.0444477752E-02     4.0436300543E-02     4.0428126639E-02
     4.0419956040E-02     4.0411788742E-02     4.0403624744E-02     4.0395464044E-02
     4.0387306640E-02     4.0379152531E-02     4.0371001712E-02     4.0362854184E-02
     4.0354709944E-02     4.0346568990E-02     4.0338431320E-02     4.0330296932E-02
     4.0322165823E-02     4.0314037993E-02     4.0305913439E-02     4.0297792159E-02
     4.0289674151E-02     4.0281559413E-02     4.0273447943E-02     4.0265339739E-02
     4.0257234799E-02     4.0249133122E-02     4.0241034705E-02     4.0232939546E-02
     4.0224847644E-02     4.0216758995E-02     4.0208673599E-02     4.0200591454E-02
     4.0192512557E-02     4.0184436906E-02     4.0176364501E-02     4.0168295337E-02
     4.0160229414E-02     4.0152166730E-02     4.0144107283E-02     4.0136051070E-02
     4.0127998091E-02     4.0119948342E-02     4.0111901822E-02     4.0103858529E-02
     4.0095818461E-02     4.0087781616E-02     4.0079747993E-02     4.0071717588E-02
     4.0063690401E-02     4.0055666430E-02     4.0047645672E-02     4.0039628125E-02
     4.0031613788E-02     4.0023602658E-02     4.0015594735E-02     4.0007590015E-02
     3.9999588497E-02
</PP_LOCAL>
 <PP_NONLOCAL>
   <!-- empty: number_of_proj = 0 in PP_HEADER, so no PP_BETA.* projectors. -->
   <!-- PP_DIJ stub kept so pseudopod's upf2.hpp parser doesn't null-deref -->
   <!-- root_node_->first_node("PP_NONLOCAL")->first_node("PP_DIJ"): line 159. -->
   <PP_DIJ type="real" size="0" columns="4">
   </PP_DIJ>
 </PP_NONLOCAL>
 <PP_PSWFC>
 </PP_PSWFC>
 <PP_RHOATOM type="real"  size="5001" columns="4">
     0.0000000000E+00     2.4794341471E-04     9.9091894057E-04     2.2263680628E-03
     3.9500456984E-03     6.1560486329E-03     8.8368548808E-03     1.1983373531E-02
     1.5585004525E-02     1.9629707710E-02     2.4104080427E-02     2.8993442803E-02
     3.4281929867E-02     3.9952589544E-02     4.5987485557E-02     5.2367804247E-02
     5.9073964300E-02     6.6085728409E-02     7.3382315882E-02     8.0942515274E-02
     8.8744796138E-02     9.6767419086E-02     1.0498854333E-01     1.1338633103E-01
     1.2193904783E-01     1.3062515893E-01     1.3942342031E-01     1.4831296458E-01
     1.5727338117E-01     1.6628479066E-01     1.7532791282E-01     1.8438412840E-01
     1.9343553473E-01     2.0246499428E-01     2.1145617765E-01     2.2039359948E-01
     2.2926264851E-01     2.3804961085E-01     2.4674168841E-01     2.5532701021E-01
     2.6379463827E-01     2.7213456885E-01     2.8033772768E-01     2.8839596035E-01
     2.9630201805E-01     3.0404953869E-01     3.1163302393E-01     3.1904781286E-01
     3.2629005077E-01     3.3335665407E-01     3.4024527527E-01     3.4695426557E-01
     3.5348262690E-01     3.5982997159E-01     3.6599648316E-01     3.7198285339E-01
     3.7779025613E-01     3.8342027746E-01     3.8887488964E-01     3.9415637933E-01
     3.9926732777E-01     4.0421053528E-01     4.0898900016E-01     4.1360586662E-01
     4.1806437563E-01     4.2236784139E-01     4.2651960765E-01     4.3052300623E-01
     4.3438133902E-01     4.3809784793E-01     4.4167568640E-01     4.4511789734E-01
     4.4842740211E-01     4.5160698378E-01     4.5465927654E-01     4.5758675943E-01
     4.6039174939E-01     4.6307640307E-01     4.6564271888E-01     4.6809254111E-01
     4.7042756695E-01     4.7264935579E-01     4.7475934017E-01     4.7675883847E-01
     4.7864906862E-01     4.8043116285E-01     4.8210618286E-01     4.8367513530E-01
     4.8513898716E-01     4.8649868075E-01     4.8775514807E-01     4.8890932424E-01
     4.8996215983E-01     4.9091463191E-01     4.9176775358E-01     4.9252257613E-01
     4.9318021185E-01     4.9374182540E-01     4.9420863911E-01     4.9458193531E-01
     4.9486305613E-01     4.9505340201E-01     4.9515442062E-01     4.9516762730E-01
     4.9509458085E-01     4.9493687901E-01     4.9469615451E-01     4.9437406196E-01
     4.9397228868E-01     4.9349254046E-01     4.9293652709E-01     4.9230595866E-01
     4.9160253929E-01     4.9082798382E-01     4.8998398626E-01     4.8907222166E-01
     4.8809434735E-01     4.8705202061E-01     4.8594687199E-01     4.8478050140E-01
     4.8355451132E-01     4.8227048421E-01     4.8092996944E-01     4.7953450212E-01
     4.7808561574E-01     4.7658480457E-01     4.7503353906E-01     4.7343329913E-01
     4.7178551873E-01     4.7009160857E-01     4.6835299066E-01     4.6657103314E-01
     4.6474709403E-01     4.6288253276E-01     4.6097864623E-01     4.5903674889E-01
     4.5705812988E-01     4.5504401645E-01     4.5299568348E-01     4.5091433129E-01
     4.4880115759E-01     4.4665736345E-01     4.4448406520E-01     4.4228244437E-01
     4.4005359528E-01     4.3779862199E-01     4.3551861800E-01     4.3321460984E-01
     4.3088768122E-01     4.2853880795E-01     4.2616903012E-01     4.2377930732E-01
     4.2137061147E-01     4.1894389471E-01     4.1650006236E-01     4.1404005773E-01
     4.1156472312E-01     4.0907498816E-01     4.0657164288E-01     4.0405558773E-01
     4.0152758537E-01     3.9898848719E-01     3.9643903481E-01     3.9388003353E-01
     3.9131220208E-01     3.8873630343E-01     3.8615303095E-01     3.8356310956E-01
     3.8096720441E-01     3.7836600704E-01     3.7576015114E-01     3.7315029989E-01
     3.7053705201E-01     3.6792104757E-01     3.6530284664E-01     3.6268307155E-01
     3.6006223998E-01     3.5744096187E-01     3.5481970890E-01     3.5219908368E-01
     3.4957950873E-01     3.4696157326E-01     3.4434567985E-01     3.4173237209E-01
     3.3912205408E-01     3.3651521191E-01     3.3391226115E-01     3.3131362397E-01
     3.2871973492E-01     3.2613094713E-01     3.2354771963E-01     3.2097033407E-01
     3.1839925340E-01     3.1583475732E-01     3.1327723928E-01     3.1072701520E-01
     3.0818439374E-01     3.0564973754E-01     3.0312326636E-01     3.0060536753E-01
     2.9809624731E-01     2.9559622996E-01     2.9310557269E-01     2.9062449750E-01
     2.8815332279E-01     2.8569218837E-01     2.8324141465E-01     2.8080118028E-01
     2.7837169267E-01     2.7595321500E-01     2.7354583751E-01     2.7114985674E-01
     2.6876540189E-01     2.6639264465E-01     2.6403181011E-01     2.6168295407E-01
     2.5934632864E-01     2.5702204381E-01     2.5471021239E-01     2.5241103884E-01
     2.5012456127E-01     2.4785096372E-01     2.4559036883E-01     2.4334280687E-01
     2.4110847696E-01     2.3888742000E-01     2.3667972467E-01     2.3448553732E-01
     2.3230484695E-01     2.3013779622E-01     2.2798447164E-01     2.2584484162E-01
     2.2371907224E-01     2.2160718423E-01     2.1950918491E-01     2.1742520274E-01
     2.1535521910E-01     2.1329927590E-01     2.1125746569E-01     2.0922973692E-01
     2.0721615973E-01     2.0521679417E-01     2.0323156191E-01     2.0126055392E-01
     1.9930380230E-01     1.9736120736E-01     1.9543287344E-01     1.9351880846E-01
     1.9161889992E-01     1.8973325450E-01     1.8786185993E-01     1.8600460254E-01
     1.8416157699E-01     1.8233276208E-01     1.8051803620E-01     1.7871748583E-01
     1.7693108606E-01     1.7515870043E-01     1.7340041110E-01     1.7165618863E-01
     1.6992589269E-01     1.6820958701E-01     1.6650724345E-01     1.6481872662E-01
     1.6314406985E-01     1.6148325248E-01     1.5983614921E-01     1.5820275480E-01
     1.5658306061E-01     1.5497695691E-01     1.5338439180E-01     1.5180537259E-01
     1.5023981072E-01     1.4868760030E-01     1.4714876754E-01     1.4562325032E-01
     1.4411088316E-01     1.4261171261E-01     1.4112567980E-01     1.3965263949E-01
     1.3819257554E-01     1.3674545831E-01     1.3531117665E-01     1.3388963650E-01
     1.3248084168E-01     1.3108472136E-01     1.2970109889E-01     1.2833001076E-01
     1.2697139008E-01     1.2562509939E-01     1.2429108335E-01     1.2296931894E-01
     1.2165971717E-01     1.2036212317E-01     1.1907655698E-01     1.1780294648E-01
     1.1654114810E-01     1.1529111045E-01     1.1405280258E-01     1.1282613765E-01
     1.1161095024E-01     1.1040725990E-01     1.0921499300E-01     1.0803401854E-01
     1.0686425527E-01     1.0570568262E-01     1.0455822148E-01     1.0342170539E-01
     1.0229612790E-01     1.0118143008E-01     1.0007751189E-01     9.8984230691E-02
     9.7901591614E-02     9.6829518883E-02     9.5767884597E-02     9.4716602554E-02
     9.3675651345E-02     9.2644952595E-02     9.1624357062E-02     9.0613825474E-02
     8.9613313452E-02     8.8622740963E-02     8.7641943554E-02     8.6670918562E-02
     8.5709603256E-02     8.4757913158E-02     8.3815684928E-02     8.2882931486E-02
     8.1959580376E-02     8.1045538566E-02     8.0140663081E-02     7.9244958367E-02
     7.8358352085E-02     7.7480747512E-02     7.6612013484E-02     7.5752149816E-02
     7.4901084880E-02     7.4058722878E-02     7.3224935982E-02     7.2399723308E-02
     7.1583014448E-02     7.0774718909E-02     6.9974704043E-02     6.9182972050E-02
     6.8399454182E-02     6.7624069401E-02     6.6856672591E-02     6.6097272493E-02
     6.5345802386E-02     6.4602189287E-02     6.3866284591E-02     6.3138090627E-02
     6.2417548303E-02     6.1704587356E-02     6.0999076474E-02     6.0300987164E-02
     5.9610277067E-02     5.8926878874E-02     5.8250682553E-02     5.7581621736E-02
     5.6919673704E-02     5.6264774278E-02     5.5616838504E-02     5.4975756187E-02
     5.4341526243E-02     5.3714087760E-02     5.3093374958E-02     5.2479257060E-02
     5.1871728058E-02     5.1270739451E-02     5.0676229134E-02     5.0088097362E-02
     4.9506279485E-02     4.8930756928E-02     4.8361471290E-02     4.7798357672E-02
     4.7241288817E-02     4.6690276084E-02     4.6145264773E-02     4.5606196203E-02
     4.5072972721E-02     4.4545541444E-02     4.4023881815E-02     4.3507939101E-02
     4.2997654834E-02     4.2492905991E-02     4.1993703269E-02     4.1499997132E-02
     4.1011733250E-02     4.0528830544E-02     4.0051217904E-02     3.9578886841E-02
     3.9111787057E-02     3.8649865000E-02     3.8193021326E-02     3.7741231625E-02
     3.7294467263E-02     3.6852678829E-02     3.6415813870E-02     3.5983760247E-02
     3.5556530198E-02     3.5134078994E-02     3.4716358396E-02     3.4303305080E-02
     3.3894835682E-02     3.3490952616E-02     3.3091611670E-02     3.2696766006E-02
     3.2306344980E-02     3.1920288091E-02     3.1538589081E-02     3.1161205154E-02
     3.0788091067E-02     3.0419172782E-02     3.0054404780E-02     2.9693775584E-02
     2.9337243976E-02     2.8984766463E-02     2.8636269166E-02     2.8291714111E-02
     2.7951087999E-02     2.7614351317E-02     2.7281462438E-02     2.6952350866E-02
     2.6626979290E-02     2.6305335782E-02     2.5987382630E-02     2.5673080163E-02
     2.5362364216E-02     2.5055191839E-02     2.4751555386E-02     2.4451419017E-02
     2.4154745071E-02     2.3861478444E-02     2.3571564847E-02     2.3285003479E-02
     2.3001760410E-02     2.2721800031E-02     2.2445078789E-02     2.2171526061E-02
     2.1901150013E-02     2.1633918647E-02     2.1369798413E-02     2.1108754197E-02
     2.0850710883E-02     2.0595671221E-02     2.0343610458E-02     2.0094497098E-02
     1.9848298202E-02     1.9604955310E-02     1.9364442566E-02     1.9126750436E-02
     1.8891849457E-02     1.8659708833E-02     1.8430288872E-02     1.8203531688E-02
     1.7979444001E-02     1.7757998342E-02     1.7539166017E-02     1.7322917097E-02
     1.7109191383E-02     1.6897980399E-02     1.6689269114E-02     1.6483030879E-02
     1.6279237912E-02     1.6077852629E-02     1.5878825755E-02     1.5682162720E-02
     1.5487838857E-02     1.5295828455E-02     1.5106104755E-02     1.4918616206E-02
     1.4733348857E-02     1.4550292886E-02     1.4369424576E-02     1.4190719249E-02
     1.4014151128E-02     1.3839659221E-02     1.3667256683E-02     1.3496921706E-02
     1.3328631601E-02     1.3162362793E-02     1.2998080875E-02     1.2835748138E-02
     1.2675368275E-02     1.2516920489E-02     1.2360383178E-02     1.2205733920E-02
     1.2052932833E-02     1.1901959252E-02     1.1752810004E-02     1.1605465350E-02
     1.1459904808E-02     1.1316107146E-02     1.1174029833E-02     1.1033663349E-02
     1.0895000275E-02     1.0758021954E-02     1.0622709048E-02     1.0489041530E-02
     1.0356976695E-02     1.0226510813E-02     1.0097634680E-02     9.9703307378E-03
     9.8445807986E-03     9.7203660474E-03     9.5976457522E-03     9.4764172062E-03
     9.3566716576E-03     9.2383926415E-03     9.1215631207E-03     9.0061654822E-03
     8.8921628626E-03     8.7795493594E-03     8.6683186485E-03     8.5584553503E-03
     8.4499435627E-03     8.3427668572E-03     8.2368939208E-03     8.1323119604E-03
     8.0290187790E-03     7.9270000634E-03     7.8262410234E-03     7.7267263895E-03
     7.6284318873E-03     7.5313346684E-03     7.4354380585E-03     7.3407287840E-03
     7.2471931373E-03     7.1548169739E-03     7.0635843287E-03     6.9734597403E-03
     6.8844530956E-03     6.7965521281E-03     6.7097441767E-03     6.6240161831E-03
     6.5393546899E-03     6.4557301699E-03     6.3731393266E-03     6.2915776433E-03
     6.2110334645E-03     6.1314947748E-03     6.0529491959E-03     5.9753783320E-03
     5.8987597471E-03     5.8230986296E-03     5.7483842858E-03     5.6746056953E-03
     5.6017515092E-03     5.5298100485E-03     5.4587541386E-03     5.3885834526E-03
     5.3192932870E-03     5.2508735670E-03     5.1833139204E-03     5.1166036764E-03
     5.0507287806E-03     4.9856653379E-03     4.9214203547E-03     4.8579846503E-03
     4.7953487751E-03     4.7335030098E-03     4.6724373639E-03     4.6121326368E-03
     4.5525789599E-03     4.4937772672E-03     4.4357189771E-03     4.3783952646E-03
     4.3217970601E-03     4.2659150477E-03     4.2107269600E-03     4.1562326781E-03
     4.1024289394E-03     4.0493077557E-03     3.9968609188E-03     3.9450799988E-03
     3.8939563432E-03     3.8434664007E-03     3.7936159723E-03     3.7443993547E-03
     3.6958091420E-03     3.6478377293E-03     3.6004773117E-03     3.5537198828E-03
     3.5075421006E-03     3.4619523711E-03     3.4169441116E-03     3.3725104825E-03
     3.3286444647E-03     3.2853388583E-03     3.2425862821E-03     3.2003648485E-03
     3.1586827452E-03     3.1175338565E-03     3.0769118893E-03     3.0368103888E-03
     2.9972227375E-03     2.9581421546E-03     2.9195492532E-03     2.8814496160E-03
     2.8438387299E-03     2.8067108257E-03     0.0000000000E+00     0.0000000000E+00
     0.0000000000E+00     0.0000000000E+00     0.0000000000E+00     0.0000000000E+00
     0.0000000000E+00     0.0000000000E+00     0.0000000000E+00     0.0000000000E+00
     0.0000000000E+00     0.0000000000E+00     0.0000000000E+00     0.0000000000E+00
     0.0000000000E+00     0.0000000000E+00     0.0000000000E+00     0.0000000000E+00
     0.0000000000E+00     0.0000000000E+00     0.0000000000E+00     0.0000000000E+00
     0.0000000000E+00     0.0000000000E+00     0.0000000000E+00     0.0000000000E+00
     0.0000000000E+00     0.0000000000E+00     0.0000000000E+00     0.0000000000E+00
     0.0000000000E+00     0.0000000000E+00     0.0000000000E+00     0.0000000000E+00
     0.0000000000E+00     0.0000000000E+00     0.0000000000E+00     0.0000000000E+00
     0.0000000000E+00     0.0000000000E+00     0.0000000000E+00     0.0000000000E+00
     0.0000000000E+00     0.0000000000E+00     0.0000000000E+00     0.0000000000E+00
     0.0000000000E+00     0.0000000000E+00     0.0000000000E+00     0.0000000000E+00
     0.0000000000E+00     0.0000000000E+00     0.0000000000E+00     0.0000000000E+00
     0.0000000000E+00     0.0000000000E+00     0.0000000000E+00     0.0000000000E+00
     0.0000000000E+00     0.0000000000E+00     0.0000000000E+00     0.0000000000E+00
     0.0000000000E+00     0.0000000000E+00     0.0000000000E+00     0.0000000000E+00
     0.0000000000E+00     0.0000000000E+00     0.0000000000E+00     0.0000000000E+00
     0.0000000000E+00     0.0000000000E+00     0.0000000000E+00     0.0000000000E+00
     0.0000000000E+00     0.0000000000E+00     0.0000000000E+00     0.0000000000E+00
     0.0000000000E+00     0.0000000000E+00     0.0000000000E+00     0.0000000000E+00
     0.0000000000E+00     0.0000000000E+00     0.0000000000E+00     0.0000000000E+00
     0.0000000000E+00     0.0000000000E+00     0.0000000000E+00     0.0000000000E+00
     0.0000000000E+00     0.0000000000E+00     0.0000000000E+00     0.0000000000E+00
     0.0000000000E+00     0.0000000000E+00     0.0000000000E+00     0.0000000000E+00
     0.0000000000E+00     0.0000000000E+00     0.0000000000E+00     0.0000000000E+00
     0.0000000000E+00     0.0000000000E+00     0.0000000000E+00     0.0000000000E+00
     0.0000000000E+00     0.0000000000E+00     0.0000000000E+00     0.0000000000E+00
     0.0000000000E+00     0.0000000000E+00     0.0000000000E+00     0.0000000000E+00
     0.0000000000E+00     0.0000000000E+00     0.0000000000E+00     0.0000000000E+00
     0.0000000000E+00     0.0000000000E+00     0.0000000000E+00     0.0000000000E+00
     0.0000000000E+00     0.0000000000E+00     0.0000000000E+00     0.0000000000E+00
     0.0000000000E+00     0.0000000000E+00     0.0000000000E+00     0.0000000000E+00
     0.0000000000E+00     0.0000000000E+00     0.0000000000E+00     0.0000000000E+00
     0.0000000000E+00     0.0000000000E+00     0.0000000000E+00     0.0000000000E+00
     0.0000000000E+00     0.0000000000E+00     0.0000000000E+00     0.0000000000E+00
     0.0000000000E+00     0.0000000000E+00     0.0000000000E+00     0.0000000000E+00
     0.0000000000E+00     0.0000000000E+00     0.0000000000E+00     0.0000000000E+00
     0.0000000000E+00     0.0000000000E+00     0.0000000000E+00     0.0000000000E+00
     0.0000000000E+00     0.0000000000E+00     0.0000000000E+00     0.0000000000E+00
     0.0000000000E+00     0.0000000000E+00     0.0000000000E+00     0.0000000000E+00
     0.0000000000E+00     0.0000000000E+00     0.0000000000E+00     0.0000000000E+00
     0.0000000000E+00     0.0000000000E+00     0.0000000000E+00     0.0000000000E+00
     0.0000000000E+00     0.0000000000E+00     0.0000000000E+00     0.0000000000E+00
     0.0000000000E+00     0.0000000000E+00     0.0000000000E+00     0.0000000000E+00
     0.0000000000E+00     0.0000000000E+00     0.0000000000E+00     0.0000000000E+00
     0.0000000000E+00     0.0000000000E+00     0.0000000000E+00     0.0000000000E+00
     0.0000000000E+00     0.0000000000E+00     0.0000000000E+00     0.0000000000E+00
     0.0000000000E+00     0.0000000000E+00     0.0000000000E+00     0.0000000000E+00
     0.0000000000E+00     0.0000000000E+00     0.0000000000E+00     0.0000000000E+00
     0.0000000000E+00     0.0000000000E+00     0.0000000000E+00     0.0000000000E+00
     0.0000000000E+00     0.0000000000E+00     0.0000000000E+00     0.0000000000E+00
     0.0000000000E+00     0.0000000000E+00     0.0000000000E+00     0.0000000000E+00
     0.0000000000E+00     0.0000000000E+00     0.0000000000E+00     0.0000000000E+00
     0.0000000000E+00     0.0000000000E+00     0.0000000000E+00     0.0000000000E+00
     0.0000000000E+00     0.0000000000E+00     0.0000000000E+00     0.0000000000E+00
     0.0000000000E+00     0.0000000000E+00     0.0000000000E+00     0.0000000000E+00
     0.0000000000E+00     0.0000000000E+00     0.0000000000E+00     0.0000000000E+00
     0.0000000000E+00     0.0000000000E+00     0.0000000000E+00     0.0000000000E+00
     0.0000000000E+00     0.0000000000E+00     0.0000000000E+00     0.0000000000E+00
     0.0000000000E+00     0.0000000000E+00     0.0000000000E+00     0.0000000000E+00
     0.0000000000E+00     0.0000000000E+00     0.0000000000E+00     0.0000000000E+00
     0.0000000000E+00     0.0000000000E+00     0.0000000000E+00     0.0000000000E+00
     0.0000000000E+00     0.0000000000E+00     0.0000000000E+00     0.0000000000E+00
     0.0000000000E+00     0.0000000000E+00     0.0000000000E+00     0.0000000000E+00
     0.0000000000E+00     0.0000000000E+00     0.0000000000E+00     0.0000000000E+00
     0.0000000000E+00     0.0000000000E+00     0.0000000000E+00     0.0000000000E+00
     0.0000000000E+00     0.0000000000E+00     0.0000000000E+00     0.0000000000E+00
     0.0000000000E+00     0.0000000000E+00     0.0000000000E+00     0.0000000000E+00
     0.0000000000E+00     0.0000000000E+00     0.0000000000E+00     0.0000000000E+00
     0.0000000000E+00     0.0000000000E+00     0.0000000000E+00     0.0000000000E+00
     0.0000000000E+00     0.0000000000E+00     0.0000000000E+00     0.0000000000E+00
     0.0000000000E+00     0.0000000000E+00     0.0000000000E+00     0.0000000000E+00
     0.0000000000E+00     0.0000000000E+00     0.0000000000E+00     0.0000000000E+00
     0.0000000000E+00     0.0000000000E+00     0.0000000000E+00     0.0000000000E+00
     0.0000000000E+00     0.0000000000E+00     0.0000000000E+00     0.0000000000E+00
     0.0000000000E+00     0.0000000000E+00     0.0000000000E+00     0.0000000000E+00
     0.0000000000E+00     0.0000000000E+00     0.0000000000E+00     0.0000000000E+00
     0.0000000000E+00     0.0000000000E+00     0.0000000000E+00     0.0000000000E+00
     0.0000000000E+00     0.0000000000E+00     0.0000000000E+00     0.0000000000E+00
     0.0000000000E+00     0.0000000000E+00     0.0000000000E+00     0.0000000000E+00
     0.0000000000E+00     0.0000000000E+00     0.0000000000E+00     0.0000000000E+00
     0.0000000000E+00     0.0000000000E+00     0.0000000000E+00     0.0000000000E+00
     0.0000000000E+00     0.0000000000E+00     0.0000000000E+00     0.0000000000E+00
     0.0000000000E+00     0.0000000000E+00     0.0000000000E+00     0.0000000000E+00
     0.0000000000E+00     0.0000000000E+00     0.0000000000E+00     0.0000000000E+00
     0.0000000000E+00     0.0000000000E+00     0.0000000000E+00     0.0000000000E+00
     0.0000000000E+00     0.0000000000E+00     0.0000000000E+00     0.0000000000E+00
     0.0000000000E+00     0.0000000000E+00     0.0000000000E+00     0.0000000000E+00
     0.0000000000E+00     0.0000000000E+00     0.0000000000E+00     0.0000000000E+00
     0.0000000000E+00     0.0000000000E+00     0.0000000000E+00     0.0000000000E+00
     0.0000000000E+00     0.0000000000E+00     0.0000000000E+00     0.0000000000E+00
     0.0000000000E+00     0.0000000000E+00     0.0000000000E+00     0.0000000000E+00
     0.0000000000E+00     0.0000000000E+00     0.0000000000E+00     0.0000000000E+00
     0.0000000000E+00     0.0000000000E+00     0.0000000000E+00     0.0000000000E+00
     0.0000000000E+00     0.0000000000E+00     0.0000000000E+00     0.0000000000E+00
     0.0000000000E+00     0.0000000000E+00     0.0000000000E+00     0.0000000000E+00
     0.0000000000E+00     0.0000000000E+00     0.0000000000E+00     0.0000000000E+00
     0.0000000000E+00     0.0000000000E+00     0.0000000000E+00     0.0000000000E+00
     0.0000000000E+00     0.0000000000E+00     0.0000000000E+00     0.0000000000E+00
     0.0000000000E+00     0.0000000000E+00     0.0000000000E+00     0.0000000000E+00
     0.0000000000E+00     0.0000000000E+00     0.0000000000E+00     0.0000000000E+00
     0.0000000000E+00     0.0000000000E+00     0.0000000000E+00     0.0000000000E+00
     0.0000000000E+00     0.0000000000E+00     0.0000000000E+00     0.0000000000E+00
     0.0000000000E+00     0.0000000000E+00     0.0000000000E+00     0.0000000000E+00
     0.0000000000E+00     0.0000000000E+00     0.0000000000E+00     0.0000000000E+00
     0.0000000000E+00     0.0000000000E+00     0.0000000000E+00     0.0000000000E+00
     0.0000000000E+00     0.0000000000E+00     0.0000000000E+00     0.0000000000E+00
     0.0000000000E+00     0.0000000000E+00     0.0000000000E+00     0.0000000000E+00
     0.0000000000E+00     0.0000000000E+00     0.0000000000E+00     0.0000000000E+00
     0.0000000000E+00     0.0000000000E+00     0.0000000000E+00     0.0000000000E+00
     0.0000000000E+00     0.0000000000E+00     0.0000000000E+00     0.0000000000E+00
     0.0000000000E+00     0.0000000000E+00     0.0000000000E+00     0.0000000000E+00
     0.0000000000E+00     0.0000000000E+00     0.0000000000E+00     0.0000000000E+00
     0.0000000000E+00     0.0000000000E+00     0.0000000000E+00     0.0000000000E+00
     0.0000000000E+00     0.0000000000E+00     0.0000000000E+00     0.0000000000E+00
     0.0000000000E+00     0.0000000000E+00     0.0000000000E+00     0.0000000000E+00
     0.0000000000E+00     0.0000000000E+00     0.0000000000E+00     0.0000000000E+00
     0.0000000000E+00     0.0000000000E+00     0.0000000000E+00     0.0000000000E+00
     0.0000000000E+00     0.0000000000E+00     0.0000000000E+00     0.0000000000E+00
     0.0000000000E+00     0.0000000000E+00     0.0000000000E+00     0.0000000000E+00
     0.0000000000E+00     0.0000000000E+00     0.0000000000E+00     0.0000000000E+00
     0.0000000000E+00     0.0000000000E+00     0.0000000000E+00     0.0000000000E+00
     0.0000000000E+00     0.0000000000E+00     0.0000000000E+00     0.0000000000E+00
     0.0000000000E+00     0.0000000000E+00     0.0000000000E+00     0.0000000000E+00
     0.0000000000E+00     0.0000000000E+00     0.0000000000E+00     0.0000000000E+00
     0.0000000000E+00     0.0000000000E+00     0.0000000000E+00     0.0000000000E+00
     0.0000000000E+00     0.0000000000E+00     0.0000000000E+00     0.0000000000E+00
     0.0000000000E+00     0.0000000000E+00     0.0000000000E+00     0.0000000000E+00
     0.0000000000E+00     0.0000000000E+00     0.0000000000E+00     0.0000000000E+00
     0.0000000000E+00     0.0000000000E+00     0.0000000000E+00     0.0000000000E+00
     0.0000000000E+00     0.0000000000E+00     0.0000000000E+00     0.0000000000E+00
     0.0000000000E+00     0.0000000000E+00     0.0000000000E+00     0.0000000000E+00
     0.0000000000E+00     0.0000000000E+00     0.0000000000E+00     0.0000000000E+00
     0.0000000000E+00     0.0000000000E+00     0.0000000000E+00     0.0000000000E+00
     0.0000000000E+00     0.0000000000E+00     0.0000000000E+00     0.0000000000E+00
     0.0000000000E+00     0.0000000000E+00     0.0000000000E+00     0.0000000000E+00
     0.0000000000E+00     0.0000000000E+00     0.0000000000E+00     0.0000000000E+00
     0.0000000000E+00     0.0000000000E+00     0.0000000000E+00     0.0000000000E+00
     0.0000000000E+00     0.0000000000E+00     0.0000000000E+00     0.0000000000E+00
     0.0000000000E+00     0.0000000000E+00     0.0000000000E+00     0.0000000000E+00
     0.0000000000E+00     0.0000000000E+00     0.0000000000E+00     0.0000000000E+00
     0.0000000000E+00     0.0000000000E+00     0.0000000000E+00     0.0000000000E+00
     0.0000000000E+00     0.0000000000E+00     0.0000000000E+00     0.0000000000E+00
     0.0000000000E+00     0.0000000000E+00     0.0000000000E+00     0.0000000000E+00
     0.0000000000E+00     0.0000000000E+00     0.0000000000E+00     0.0000000000E+00
     0.0000000000E+00     0.0000000000E+00     0.0000000000E+00     0.0000000000E+00
     0.0000000000E+00     0.0000000000E+00     0.0000000000E+00     0.0000000000E+00
     0.0000000000E+00     0.0000000000E+00     0.0000000000E+00     0.0000000000E+00
     0.0000000000E+00     0.0000000000E+00     0.0000000000E+00     0.0000000000E+00
     0.0000000000E+00     0.0000000000E+00     0.0000000000E+00     0.0000000000E+00
     0.0000000000E+00     0.0000000000E+00     0.0000000000E+00     0.0000000000E+00
     0.0000000000E+00     0.0000000000E+00     0.0000000000E+00     0.0000000000E+00
     0.0000000000E+00     0.0000000000E+00     0.0000000000E+00     0.0000000000E+00
     0.0000000000E+00     0.0000000000E+00     0.0000000000E+00     0.0000000000E+00
     0.0000000000E+00     0.0000000000E+00     0.0000000000E+00     0.0000000000E+00
     0.0000000000E+00     0.0000000000E+00     0.0000000000E+00     0.0000000000E+00
     0.0000000000E+00     0.0000000000E+00     0.0000000000E+00     0.0000000000E+00
     0.0000000000E+00     0.0000000000E+00     0.0000000000E+00     0.0000000000E+00
     0.0000000000E+00     0.0000000000E+00     0.0000000000E+00     0.0000000000E+00
     0.0000000000E+00     0.0000000000E+00     0.0000000000E+00     0.0000000000E+00
     0.0000000000E+00     0.0000000000E+00     0.0000000000E+00     0.0000000000E+00
     0.0000000000E+00     0.0000000000E+00     0.0000000000E+00     0.0000000000E+00
     0.0000000000E+00     0.0000000000E+00     0.0000000000E+00     0.0000000000E+00
     0.0000000000E+00     0.0000000000E+00     0.0000000000E+00     0.0000000000E+00
     0.0000000000E+00     0.0000000000E+00     0.0000000000E+00     0.0000000000E+00
     0.0000000000E+00     0.0000000000E+00     0.0000000000E+00     0.0000000000E+00
     0.0000000000E+00     0.0000000000E+00     0.0000000000E+00     0.0000000000E+00
     0.0000000000E+00     0.0000000000E+00     0.0000000000E+00     0.0000000000E+00
     0.0000000000E+00     0.0000000000E+00     0.0000000000E+00     0.0000000000E+00
     0.0000000000E+00     0.0000000000E+00     0.0000000000E+00     0.0000000000E+00
     0.0000000000E+00     0.0000000000E+00     0.0000000000E+00     0.0000000000E+00
     0.0000000000E+00     0.0000000000E+00     0.0000000000E+00     0.0000000000E+00
     0.0000000000E+00     0.0000000000E+00     0.0000000000E+00     0.0000000000E+00
     0.0000000000E+00     0.0000000000E+00     0.0000000000E+00     0.0000000000E+00
     0.0000000000E+00     0.0000000000E+00     0.0000000000E+00     0.0000000000E+00
     0.0000000000E+00     0.0000000000E+00     0.0000000000E+00     0.0000000000E+00
     0.0000000000E+00     0.0000000000E+00     0.0000000000E+00     0.0000000000E+00
     0.0000000000E+00     0.0000000000E+00     0.0000000000E+00     0.0000000000E+00
     0.0000000000E+00     0.0000000000E+00     0.0000000000E+00     0.0000000000E+00
     0.0000000000E+00     0.0000000000E+00     0.0000000000E+00     0.0000000000E+00
     0.0000000000E+00     0.0000000000E+00     0.0000000000E+00     0.0000000000E+00
     0.0000000000E+00     0.0000000000E+00     0.0000000000E+00     0.0000000000E+00
     0.0000000000E+00     0.0000000000E+00     0.0000000000E+00     0.0000000000E+00
     0.0000000000E+00     0.0000000000E+00     0.0000000000E+00     0.0000000000E+00
     0.0000000000E+00     0.0000000000E+00     0.0000000000E+00     0.0000000000E+00
     0.0000000000E+00     0.0000000000E+00     0.0000000000E+00     0.0000000000E+00
     0.0000000000E+00     0.0000000000E+00     0.0000000000E+00     0.0000000000E+00
     0.0000000000E+00     0.0000000000E+00     0.0000000000E+00     0.0000000000E+00
     0.0000000000E+00     0.0000000000E+00     0.0000000000E+00     0.0000000000E+00
     0.0000000000E+00     0.0000000000E+00     0.0000000000E+00     0.0000000000E+00
     0.0000000000E+00     0.0000000000E+00     0.0000000000E+00     0.0000000000E+00
     0.0000000000E+00     0.0000000000E+00     0.0000000000E+00     0.0000000000E+00
     0.0000000000E+00     0.0000000000E+00     0.0000000000E+00     0.0000000000E+00
     0.0000000000E+00     0.0000000000E+00     0.0000000000E+00     0.0000000000E+00
     0.0000000000E+00     0.0000000000E+00     0.0000000000E+00     0.0000000000E+00
     0.0000000000E+00     0.0000000000E+00     0.0000000000E+00     0.0000000000E+00
     0.0000000000E+00     0.0000000000E+00     0.0000000000E+00     0.0000000000E+00
     0.0000000000E+00     0.0000000000E+00     0.0000000000E+00     0.0000000000E+00
     0.0000000000E+00     0.0000000000E+00     0.0000000000E+00     0.0000000000E+00
     0.0000000000E+00     0.0000000000E+00     0.0000000000E+00     0.0000000000E+00
     0.0000000000E+00     0.0000000000E+00     0.0000000000E+00     0.0000000000E+00
     0.0000000000E+00     0.0000000000E+00     0.0000000000E+00     0.0000000000E+00
     0.0000000000E+00     0.0000000000E+00     0.0000000000E+00     0.0000000000E+00
     0.0000000000E+00     0.0000000000E+00     0.0000000000E+00     0.0000000000E+00
     0.0000000000E+00     0.0000000000E+00     0.0000000000E+00     0.0000000000E+00
     0.0000000000E+00     0.0000000000E+00     0.0000000000E+00     0.0000000000E+00
     0.0000000000E+00     0.0000000000E+00     0.0000000000E+00     0.0000000000E+00
     0.0000000000E+00     0.0000000000E+00     0.0000000000E+00     0.0000000000E+00
     0.0000000000E+00     0.0000000000E+00     0.0000000000E+00     0.0000000000E+00
     0.0000000000E+00     0.0000000000E+00     0.0000000000E+00     0.0000000000E+00
     0.0000000000E+00     0.0000000000E+00     0.0000000000E+00     0.0000000000E+00
     0.0000000000E+00     0.0000000000E+00     0.0000000000E+00     0.0000000000E+00
     0.0000000000E+00     0.0000000000E+00     0.0000000000E+00     0.0000000000E+00
     0.0000000000E+00     0.0000000000E+00     0.0000000000E+00     0.0000000000E+00
     0.0000000000E+00     0.0000000000E+00     0.0000000000E+00     0.0000000000E+00
     0.0000000000E+00     0.0000000000E+00     0.0000000000E+00     0.0000000000E+00
     0.0000000000E+00     0.0000000000E+00     0.0000000000E+00     0.0000000000E+00
     0.0000000000E+00     0.0000000000E+00     0.0000000000E+00     0.0000000000E+00
     0.0000000000E+00     0.0000000000E+00     0.0000000000E+00     0.0000000000E+00
     0.0000000000E+00     0.0000000000E+00     0.0000000000E+00     0.0000000000E+00
     0.0000000000E+00     0.0000000000E+00     0.0000000000E+00     0.0000000000E+00
     0.0000000000E+00     0.0000000000E+00     0.0000000000E+00     0.0000000000E+00
     0.0000000000E+00     0.0000000000E+00     0.0000000000E+00     0.0000000000E+00
     0.0000000000E+00     0.0000000000E+00     0.0000000000E+00     0.0000000000E+00
     0.0000000000E+00     0.0000000000E+00     0.0000000000E+00     0.0000000000E+00
     0.0000000000E+00     0.0000000000E+00     0.0000000000E+00     0.0000000000E+00
     0.0000000000E+00     0.0000000000E+00     0.0000000000E+00     0.0000000000E+00
     0.0000000000E+00     0.0000000000E+00     0.0000000000E+00     0.0000000000E+00
     0.0000000000E+00     0.0000000000E+00     0.0000000000E+00     0.0000000000E+00
     0.0000000000E+00     0.0000000000E+00     0.0000000000E+00     0.0000000000E+00
     0.0000000000E+00     0.0000000000E+00     0.0000000000E+00     0.0000000000E+00
     0.0000000000E+00     0.0000000000E+00     0.0000000000E+00     0.0000000000E+00
     0.0000000000E+00     0.0000000000E+00     0.0000000000E+00     0.0000000000E+00
     0.0000000000E+00     0.0000000000E+00     0.0000000000E+00     0.0000000000E+00
     0.0000000000E+00     0.0000000000E+00     0.0000000000E+00     0.0000000000E+00
     0.0000000000E+00     0.0000000000E+00     0.0000000000E+00     0.0000000000E+00
     0.0000000000E+00     0.0000000000E+00     0.0000000000E+00     0.0000000000E+00
     0.0000000000E+00     0.0000000000E+00     0.0000000000E+00     0.0000000000E+00
     0.0000000000E+00     0.0000000000E+00     0.0000000000E+00     0.0000000000E+00
     0.0000000000E+00     0.0000000000E+00     0.0000000000E+00     0.0000000000E+00
     0.0000000000E+00     0.0000000000E+00     0.0000000000E+00     0.0000000000E+00
     0.0000000000E+00     0.0000000000E+00     0.0000000000E+00     0.0000000000E+00
     0.0000000000E+00     0.0000000000E+00     0.0000000000E+00     0.0000000000E+00
     0.0000000000E+00     0.0000000000E+00     0.0000000000E+00     0.0000000000E+00
     0.0000000000E+00     0.0000000000E+00     0.0000000000E+00     0.0000000000E+00
     0.0000000000E+00     0.0000000000E+00     0.0000000000E+00     0.0000000000E+00
     0.0000000000E+00     0.0000000000E+00     0.0000000000E+00     0.0000000000E+00
     0.0000000000E+00     0.0000000000E+00     0.0000000000E+00     0.0000000000E+00
     0.0000000000E+00     0.0000000000E+00     0.0000000000E+00     0.0000000000E+00
     0.0000000000E+00     0.0000000000E+00     0.0000000000E+00     0.0000000000E+00
     0.0000000000E+00     0.0000000000E+00     0.0000000000E+00     0.0000000000E+00
     0.0000000000E+00     0.0000000000E+00     0.0000000000E+00     0.0000000000E+00
     0.0000000000E+00     0.0000000000E+00     0.0000000000E+00     0.0000000000E+00
     0.0000000000E+00     0.0000000000E+00     0.0000000000E+00     0.0000000000E+00
     0.0000000000E+00     0.0000000000E+00     0.0000000000E+00     0.0000000000E+00
     0.0000000000E+00     0.0000000000E+00     0.0000000000E+00     0.0000000000E+00
     0.0000000000E+00     0.0000000000E+00     0.0000000000E+00     0.0000000000E+00
     0.0000000000E+00     0.0000000000E+00     0.0000000000E+00     0.0000000000E+00
     0.0000000000E+00     0.0000000000E+00     0.0000000000E+00     0.0000000000E+00
     0.0000000000E+00     0.0000000000E+00     0.0000000000E+00     0.0000000000E+00
     0.0000000000E+00     0.0000000000E+00     0.0000000000E+00     0.0000000000E+00
     0.0000000000E+00     0.0000000000E+00     0.0000000000E+00     0.0000000000E+00
     0.0000000000E+00     0.0000000000E+00     0.0000000000E+00     0.0000000000E+00
     0.0000000000E+00     0.0000000000E+00     0.0000000000E+00     0.0000000000E+00
     0.0000000000E+00     0.0000000000E+00     0.0000000000E+00     0.0000000000E+00
     0.0000000000E+00     0.0000000000E+00     0.0000000000E+00     0.0000000000E+00
     0.0000000000E+00     0.0000000000E+00     0.0000000000E+00     0.0000000000E+00
     0.0000000000E+00     0.0000000000E+00     0.0000000000E+00     0.0000000000E+00
     0.0000000000E+00     0.0000000000E+00     0.0000000000E+00     0.0000000000E+00
     0.0000000000E+00     0.0000000000E+00     0.0000000000E+00     0.0000000000E+00
     0.0000000000E+00     0.0000000000E+00     0.0000000000E+00     0.0000000000E+00
     0.0000000000E+00     0.0000000000E+00     0.0000000000E+00     0.0000000000E+00
     0.0000000000E+00     0.0000000000E+00     0.0000000000E+00     0.0000000000E+00
     0.0000000000E+00     0.0000000000E+00     0.0000000000E+00     0.0000000000E+00
     0.0000000000E+00     0.0000000000E+00     0.0000000000E+00     0.0000000000E+00
     0.0000000000E+00     0.0000000000E+00     0.0000000000E+00     0.0000000000E+00
     0.0000000000E+00     0.0000000000E+00     0.0000000000E+00     0.0000000000E+00
     0.0000000000E+00     0.0000000000E+00     0.0000000000E+00     0.0000000000E+00
     0.0000000000E+00     0.0000000000E+00     0.0000000000E+00     0.0000000000E+00
     0.0000000000E+00     0.0000000000E+00     0.0000000000E+00     0.0000000000E+00
     0.0000000000E+00     0.0000000000E+00     0.0000000000E+00     0.0000000000E+00
     0.0000000000E+00     0.0000000000E+00     0.0000000000E+00     0.0000000000E+00
     0.0000000000E+00     0.0000000000E+00     0.0000000000E+00     0.0000000000E+00
     0.0000000000E+00     0.0000000000E+00     0.0000000000E+00     0.0000000000E+00
     0.0000000000E+00     0.0000000000E+00     0.0000000000E+00     0.0000000000E+00
     0.0000000000E+00     0.0000000000E+00     0.0000000000E+00     0.0000000000E+00
     0.0000000000E+00     0.0000000000E+00     0.0000000000E+00     0.0000000000E+00
     0.0000000000E+00     0.0000000000E+00     0.0000000000E+00     0.0000000000E+00
     0.0000000000E+00     0.0000000000E+00     0.0000000000E+00     0.0000000000E+00
     0.0000000000E+00     0.0000000000E+00     0.0000000000E+00     0.0000000000E+00
     0.0000000000E+00     0.0000000000E+00     0.0000000000E+00     0.0000000000E+00
     0.0000000000E+00     0.0000000000E+00     0.0000000000E+00     0.0000000000E+00
     0.0000000000E+00     0.0000000000E+00     0.0000000000E+00     0.0000000000E+00
     0.0000000000E+00     0.0000000000E+00     0.0000000000E+00     0.0000000000E+00
     0.0000000000E+00     0.0000000000E+00     0.0000000000E+00     0.0000000000E+00
     0.0000000000E+00     0.0000000000E+00     0.0000000000E+00     0.0000000000E+00
     0.0000000000E+00     0.0000000000E+00     0.0000000000E+00     0.0000000000E+00
     0.0000000000E+00     0.0000000000E+00     0.0000000000E+00     0.0000000000E+00
     0.0000000000E+00     0.0000000000E+00     0.0000000000E+00     0.0000000000E+00
     0.0000000000E+00     0.0000000000E+00     0.0000000000E+00     0.0000000000E+00
     0.0000000000E+00     0.0000000000E+00     0.0000000000E+00     0.0000000000E+00
     0.0000000000E+00     0.0000000000E+00     0.0000000000E+00     0.0000000000E+00
     0.0000000000E+00     0.0000000000E+00     0.0000000000E+00     0.0000000000E+00
     0.0000000000E+00     0.0000000000E+00     0.0000000000E+00     0.0000000000E+00
     0.0000000000E+00     0.0000000000E+00     0.0000000000E+00     0.0000000000E+00
     0.0000000000E+00     0.0000000000E+00     0.0000000000E+00     0.0000000000E+00
     0.0000000000E+00     0.0000000000E+00     0.0000000000E+00     0.0000000000E+00
     0.0000000000E+00     0.0000000000E+00     0.0000000000E+00     0.0000000000E+00
     0.0000000000E+00     0.0000000000E+00     0.0000000000E+00     0.0000000000E+00
     0.0000000000E+00     0.0000000000E+00     0.0000000000E+00     0.0000000000E+00
     0.0000000000E+00     0.0000000000E+00     0.0000000000E+00     0.0000000000E+00
     0.0000000000E+00     0.0000000000E+00     0.0000000000E+00     0.0000000000E+00
     0.0000000000E+00     0.0000000000E+00     0.0000000000E+00     0.0000000000E+00
     0.0000000000E+00     0.0000000000E+00     0.0000000000E+00     0.0000000000E+00
     0.0000000000E+00     0.0000000000E+00     0.0000000000E+00     0.0000000000E+00
     0.0000000000E+00     0.0000000000E+00     0.0000000000E+00     0.0000000000E+00
     0.0000000000E+00     0.0000000000E+00     0.0000000000E+00     0.0000000000E+00
     0.0000000000E+00     0.0000000000E+00     0.0000000000E+00     0.0000000000E+00
     0.0000000000E+00     0.0000000000E+00     0.0000000000E+00     0.0000000000E+00
     0.0000000000E+00     0.0000000000E+00     0.0000000000E+00     0.0000000000E+00
     0.0000000000E+00     0.0000000000E+00     0.0000000000E+00     0.0000000000E+00
     0.0000000000E+00     0.0000000000E+00     0.0000000000E+00     0.0000000000E+00
     0.0000000000E+00     0.0000000000E+00     0.0000000000E+00     0.0000000000E+00
     0.0000000000E+00     0.0000000000E+00     0.0000000000E+00     0.0000000000E+00
     0.0000000000E+00     0.0000000000E+00     0.0000000000E+00     0.0000000000E+00
     0.0000000000E+00     0.0000000000E+00     0.0000000000E+00     0.0000000000E+00
     0.0000000000E+00     0.0000000000E+00     0.0000000000E+00     0.0000000000E+00
     0.0000000000E+00     0.0000000000E+00     0.0000000000E+00     0.0000000000E+00
     0.0000000000E+00     0.0000000000E+00     0.0000000000E+00     0.0000000000E+00
     0.0000000000E+00     0.0000000000E+00     0.0000000000E+00     0.0000000000E+00
     0.0000000000E+00     0.0000000000E+00     0.0000000000E+00     0.0000000000E+00
     0.0000000000E+00     0.0000000000E+00     0.0000000000E+00     0.0000000000E+00
     0.0000000000E+00     0.0000000000E+00     0.0000000000E+00     0.0000000000E+00
     0.0000000000E+00     0.0000000000E+00     0.0000000000E+00     0.0000000000E+00
     0.0000000000E+00     0.0000000000E+00     0.0000000000E+00     0.0000000000E+00
     0.0000000000E+00     0.0000000000E+00     0.0000000000E+00     0.0000000000E+00
     0.0000000000E+00     0.0000000000E+00     0.0000000000E+00     0.0000000000E+00
     0.0000000000E+00     0.0000000000E+00     0.0000000000E+00     0.0000000000E+00
     0.0000000000E+00     0.0000000000E+00     0.0000000000E+00     0.0000000000E+00
     0.0000000000E+00     0.0000000000E+00     0.0000000000E+00     0.0000000000E+00
     0.0000000000E+00     0.0000000000E+00     0.0000000000E+00     0.0000000000E+00
     0.0000000000E+00     0.0000000000E+00     0.0000000000E+00     0.0000000000E+00
     0.0000000000E+00     0.0000000000E+00     0.0000000000E+00     0.0000000000E+00
     0.0000000000E+00     0.0000000000E+00     0.0000000000E+00     0.0000000000E+00
     0.0000000000E+00     0.0000000000E+00     0.0000000000E+00     0.0000000000E+00
     0.0000000000E+00     0.0000000000E+00     0.0000000000E+00     0.0000000000E+00
     0.0000000000E+00     0.0000000000E+00     0.0000000000E+00     0.0000000000E+00
     0.0000000000E+00     0.0000000000E+00     0.0000000000E+00     0.0000000000E+00
     0.0000000000E+00     0.0000000000E+00     0.0000000000E+00     0.0000000000E+00
     0.0000000000E+00     0.0000000000E+00     0.0000000000E+00     0.0000000000E+00
     0.0000000000E+00     0.0000000000E+00     0.0000000000E+00     0.0000000000E+00
     0.0000000000E+00     0.0000000000E+00     0.0000000000E+00     0.0000000000E+00
     0.0000000000E+00     0.0000000000E+00     0.0000000000E+00     0.0000000000E+00
     0.0000000000E+00     0.0000000000E+00     0.0000000000E+00     0.0000000000E+00
     0.0000000000E+00     0.0000000000E+00     0.0000000000E+00     0.0000000000E+00
     0.0000000000E+00     0.0000000000E+00     0.0000000000E+00     0.0000000000E+00
     0.0000000000E+00     0.0000000000E+00     0.0000000000E+00     0.0000000000E+00
     0.0000000000E+00     0.0000000000E+00     0.0000000000E+00     0.0000000000E+00
     0.0000000000E+00     0.0000000000E+00     0.0000000000E+00     0.0000000000E+00
     0.0000000000E+00     0.0000000000E+00     0.0000000000E+00     0.0000000000E+00
     0.0000000000E+00     0.0000000000E+00     0.0000000000E+00     0.0000000000E+00
     0.0000000000E+00     0.0000000000E+00     0.0000000000E+00     0.0000000000E+00
     0.0000000000E+00     0.0000000000E+00     0.0000000000E+00     0.0000000000E+00
     0.0000000000E+00     0.0000000000E+00     0.0000000000E+00     0.0000000000E+00
     0.0000000000E+00     0.0000000000E+00     0.0000000000E+00     0.0000000000E+00
     0.0000000000E+00     0.0000000000E+00     0.0000000000E+00     0.0000000000E+00
     0.0000000000E+00     0.0000000000E+00     0.0000000000E+00     0.0000000000E+00
     0.0000000000E+00     0.0000000000E+00     0.0000000000E+00     0.0000000000E+00
     0.0000000000E+00     0.0000000000E+00     0.0000000000E+00     0.0000000000E+00
     0.0000000000E+00     0.0000000000E+00     0.0000000000E+00     0.0000000000E+00
     0.0000000000E+00     0.0000000000E+00     0.0000000000E+00     0.0000000000E+00
     0.0000000000E+00     0.0000000000E+00     0.0000000000E+00     0.0000000000E+00
     0.0000000000E+00     0.0000000000E+00     0.0000000000E+00     0.0000000000E+00
     0.0000000000E+00     0.0000000000E+00     0.0000000000E+00     0.0000000000E+00
     0.0000000000E+00     0.0000000000E+00     0.0000000000E+00     0.0000000000E+00
     0.0000000000E+00     0.0000000000E+00     0.0000000000E+00     0.0000000000E+00
     0.0000000000E+00     0.0000000000E+00     0.0000000000E+00     0.0000000000E+00
     0.0000000000E+00     0.0000000000E+00     0.0000000000E+00     0.0000000000E+00
     0.0000000000E+00     0.0000000000E+00     0.0000000000E+00     0.0000000000E+00
     0.0000000000E+00     0.0000000000E+00     0.0000000000E+00     0.0000000000E+00
     0.0000000000E+00     0.0000000000E+00     0.0000000000E+00     0.0000000000E+00
     0.0000000000E+00     0.0000000000E+00     0.0000000000E+00     0.0000000000E+00
     0.0000000000E+00     0.0000000000E+00     0.0000000000E+00     0.0000000000E+00
     0.0000000000E+00     0.0000000000E+00     0.0000000000E+00     0.0000000000E+00
     0.0000000000E+00     0.0000000000E+00     0.0000000000E+00     0.0000000000E+00
     0.0000000000E+00     0.0000000000E+00     0.0000000000E+00     0.0000000000E+00
     0.0000000000E+00     0.0000000000E+00     0.0000000000E+00     0.0000000000E+00
     0.0000000000E+00     0.0000000000E+00     0.0000000000E+00     0.0000000000E+00
     0.0000000000E+00     0.0000000000E+00     0.0000000000E+00     0.0000000000E+00
     0.0000000000E+00     0.0000000000E+00     0.0000000000E+00     0.0000000000E+00
     0.0000000000E+00     0.0000000000E+00     0.0000000000E+00     0.0000000000E+00
     0.0000000000E+00     0.0000000000E+00     0.0000000000E+00     0.0000000000E+00
     0.0000000000E+00     0.0000000000E+00     0.0000000000E+00     0.0000000000E+00
     0.0000000000E+00     0.0000000000E+00     0.0000000000E+00     0.0000000000E+00
     0.0000000000E+00     0.0000000000E+00     0.0000000000E+00     0.0000000000E+00
     0.0000000000E+00     0.0000000000E+00     0.0000000000E+00     0.0000000000E+00
     0.0000000000E+00     0.0000000000E+00     0.0000000000E+00     0.0000000000E+00
     0.0000000000E+00     0.0000000000E+00     0.0000000000E+00     0.0000000000E+00
     0.0000000000E+00     0.0000000000E+00     0.0000000000E+00     0.0000000000E+00
     0.0000000000E+00     0.0000000000E+00     0.0000000000E+00     0.0000000000E+00
     0.0000000000E+00     0.0000000000E+00     0.0000000000E+00     0.0000000000E+00
     0.0000000000E+00     0.0000000000E+00     0.0000000000E+00     0.0000000000E+00
     0.0000000000E+00     0.0000000000E+00     0.0000000000E+00     0.0000000000E+00
     0.0000000000E+00     0.0000000000E+00     0.0000000000E+00     0.0000000000E+00
     0.0000000000E+00     0.0000000000E+00     0.0000000000E+00     0.0000000000E+00
     0.0000000000E+00     0.0000000000E+00     0.0000000000E+00     0.0000000000E+00
     0.0000000000E+00     0.0000000000E+00     0.0000000000E+00     0.0000000000E+00
     0.0000000000E+00     0.0000000000E+00     0.0000000000E+00     0.0000000000E+00
     0.0000000000E+00     0.0000000000E+00     0.0000000000E+00     0.0000000000E+00
     0.0000000000E+00     0.0000000000E+00     0.0000000000E+00     0.0000000000E+00
     0.0000000000E+00     0.0000000000E+00     0.0000000000E+00     0.0000000000E+00
     0.0000000000E+00     0.0000000000E+00     0.0000000000E+00     0.0000000000E+00
     0.0000000000E+00     0.0000000000E+00     0.0000000000E+00     0.0000000000E+00
     0.0000000000E+00     0.0000000000E+00     0.0000000000E+00     0.0000000000E+00
     0.0000000000E+00     0.0000000000E+00     0.0000000000E+00     0.0000000000E+00
     0.0000000000E+00     0.0000000000E+00     0.0000000000E+00     0.0000000000E+00
     0.0000000000E+00     0.0000000000E+00     0.0000000000E+00     0.0000000000E+00
     0.0000000000E+00     0.0000000000E+00     0.0000000000E+00     0.0000000000E+00
     0.0000000000E+00     0.0000000000E+00     0.0000000000E+00     0.0000000000E+00
     0.0000000000E+00     0.0000000000E+00     0.0000000000E+00     0.0000000000E+00
     0.0000000000E+00     0.0000000000E+00     0.0000000000E+00     0.0000000000E+00
     0.0000000000E+00     0.0000000000E+00     0.0000000000E+00     0.0000000000E+00
     0.0000000000E+00     0.0000000000E+00     0.0000000000E+00     0.0000000000E+00
     0.0000000000E+00     0.0000000000E+00     0.0000000000E+00     0.0000000000E+00
     0.0000000000E+00     0.0000000000E+00     0.0000000000E+00     0.0000000000E+00
     0.0000000000E+00     0.0000000000E+00     0.0000000000E+00     0.0000000000E+00
     0.0000000000E+00     0.0000000000E+00     0.0000000000E+00     0.0000000000E+00
     0.0000000000E+00     0.0000000000E+00     0.0000000000E+00     0.0000000000E+00
     0.0000000000E+00     0.0000000000E+00     0.0000000000E+00     0.0000000000E+00
     0.0000000000E+00     0.0000000000E+00     0.0000000000E+00     0.0000000000E+00
     0.0000000000E+00     0.0000000000E+00     0.0000000000E+00     0.0000000000E+00
     0.0000000000E+00     0.0000000000E+00     0.0000000000E+00     0.0000000000E+00
     0.0000000000E+00     0.0000000000E+00     0.0000000000E+00     0.0000000000E+00
     0.0000000000E+00     0.0000000000E+00     0.0000000000E+00     0.0000000000E+00
     0.0000000000E+00     0.0000000000E+00     0.0000000000E+00     0.0000000000E+00
     0.0000000000E+00     0.0000000000E+00     0.0000000000E+00     0.0000000000E+00
     0.0000000000E+00     0.0000000000E+00     0.0000000000E+00     0.0000000000E+00
     0.0000000000E+00     0.0000000000E+00     0.0000000000E+00     0.0000000000E+00
     0.0000000000E+00     0.0000000000E+00     0.0000000000E+00     0.0000000000E+00
     0.0000000000E+00     0.0000000000E+00     0.0000000000E+00     0.0000000000E+00
     0.0000000000E+00     0.0000000000E+00     0.0000000000E+00     0.0000000000E+00
     0.0000000000E+00     0.0000000000E+00     0.0000000000E+00     0.0000000000E+00
     0.0000000000E+00     0.0000000000E+00     0.0000000000E+00     0.0000000000E+00
     0.0000000000E+00     0.0000000000E+00     0.0000000000E+00     0.0000000000E+00
     0.0000000000E+00     0.0000000000E+00     0.0000000000E+00     0.0000000000E+00
     0.0000000000E+00     0.0000000000E+00     0.0000000000E+00     0.0000000000E+00
     0.0000000000E+00     0.0000000000E+00     0.0000000000E+00     0.0000000000E+00
     0.0000000000E+00     0.0000000000E+00     0.0000000000E+00     0.0000000000E+00
     0.0000000000E+00     0.0000000000E+00     0.0000000000E+00     0.0000000000E+00
     0.0000000000E+00     0.0000000000E+00     0.0000000000E+00     0.0000000000E+00
     0.0000000000E+00     0.0000000000E+00     0.0000000000E+00     0.0000000000E+00
     0.0000000000E+00     0.0000000000E+00     0.0000000000E+00     0.0000000000E+00
     0.0000000000E+00     0.0000000000E+00     0.0000000000E+00     0.0000000000E+00
     0.0000000000E+00     0.0000000000E+00     0.0000000000E+00     0.0000000000E+00
     0.0000000000E+00     0.0000000000E+00     0.0000000000E+00     0.0000000000E+00
     0.0000000000E+00     0.0000000000E+00     0.0000000000E+00     0.0000000000E+00
     0.0000000000E+00     0.0000000000E+00     0.0000000000E+00     0.0000000000E+00
     0.0000000000E+00     0.0000000000E+00     0.0000000000E+00     0.0000000000E+00
     0.0000000000E+00     0.0000000000E+00     0.0000000000E+00     0.0000000000E+00
     0.0000000000E+00     0.0000000000E+00     0.0000000000E+00     0.0000000000E+00
     0.0000000000E+00     0.0000000000E+00     0.0000000000E+00     0.0000000000E+00
     0.0000000000E+00     0.0000000000E+00     0.0000000000E+00     0.0000000000E+00
     0.0000000000E+00     0.0000000000E+00     0.0000000000E+00     0.0000000000E+00
     0.0000000000E+00     0.0000000000E+00     0.0000000000E+00     0.0000000000E+00
     0.0000000000E+00     0.0000000000E+00     0.0000000000E+00     0.0000000000E+00
     0.0000000000E+00     0.0000000000E+00     0.0000000000E+00     0.0000000000E+00
     0.0000000000E+00     0.0000000000E+00     0.0000000000E+00     0.0000000000E+00
     0.0000000000E+00     0.0000000000E+00     0.0000000000E+00     0.0000000000E+00
     0.0000000000E+00     0.0000000000E+00     0.0000000000E+00     0.0000000000E+00
     0.0000000000E+00     0.0000000000E+00     0.0000000000E+00     0.0000000000E+00
     0.0000000000E+00     0.0000000000E+00     0.0000000000E+00     0.0000000000E+00
     0.0000000000E+00     0.0000000000E+00     0.0000000000E+00     0.0000000000E+00
     0.0000000000E+00     0.0000000000E+00     0.0000000000E+00     0.0000000000E+00
     0.0000000000E+00     0.0000000000E+00     0.0000000000E+00     0.0000000000E+00
     0.0000000000E+00     0.0000000000E+00     0.0000000000E+00     0.0000000000E+00
     0.0000000000E+00     0.0000000000E+00     0.0000000000E+00     0.0000000000E+00
     0.0000000000E+00     0.0000000000E+00     0.0000000000E+00     0.0000000000E+00
     0.0000000000E+00     0.0000000000E+00     0.0000000000E+00     0.0000000000E+00
     0.0000000000E+00     0.0000000000E+00     0.0000000000E+00     0.0000000000E+00
     0.0000000000E+00     0.0000000000E+00     0.0000000000E+00     0.0000000000E+00
     0.0000000000E+00     0.0000000000E+00     0.0000000000E+00     0.0000000000E+00
     0.0000000000E+00     0.0000000000E+00     0.0000000000E+00     0.0000000000E+00
     0.0000000000E+00     0.0000000000E+00     0.0000000000E+00     0.0000000000E+00
     0.0000000000E+00     0.0000000000E+00     0.0000000000E+00     0.0000000000E+00
     0.0000000000E+00     0.0000000000E+00     0.0000000000E+00     0.0000000000E+00
     0.0000000000E+00     0.0000000000E+00     0.0000000000E+00     0.0000000000E+00
     0.0000000000E+00     0.0000000000E+00     0.0000000000E+00     0.0000000000E+00
     0.0000000000E+00     0.0000000000E+00     0.0000000000E+00     0.0000000000E+00
     0.0000000000E+00     0.0000000000E+00     0.0000000000E+00     0.0000000000E+00
     0.0000000000E+00     0.0000000000E+00     0.0000000000E+00     0.0000000000E+00
     0.0000000000E+00     0.0000000000E+00     0.0000000000E+00     0.0000000000E+00
     0.0000000000E+00     0.0000000000E+00     0.0000000000E+00     0.0000000000E+00
     0.0000000000E+00     0.0000000000E+00     0.0000000000E+00     0.0000000000E+00
     0.0000000000E+00     0.0000000000E+00     0.0000000000E+00     0.0000000000E+00
     0.0000000000E+00     0.0000000000E+00     0.0000000000E+00     0.0000000000E+00
     0.0000000000E+00     0.0000000000E+00     0.0000000000E+00     0.0000000000E+00
     0.0000000000E+00     0.0000000000E+00     0.0000000000E+00     0.0000000000E+00
     0.0000000000E+00     0.0000000000E+00     0.0000000000E+00     0.0000000000E+00
     0.0000000000E+00     0.0000000000E+00     0.0000000000E+00     0.0000000000E+00
     0.0000000000E+00     0.0000000000E+00     0.0000000000E+00     0.0000000000E+00
     0.0000000000E+00     0.0000000000E+00     0.0000000000E+00     0.0000000000E+00
     0.0000000000E+00     0.0000000000E+00     0.0000000000E+00     0.0000000000E+00
     0.0000000000E+00     0.0000000000E+00     0.0000000000E+00     0.0000000000E+00
     0.0000000000E+00     0.0000000000E+00     0.0000000000E+00     0.0000000000E+00
     0.0000000000E+00     0.0000000000E+00     0.0000000000E+00     0.0000000000E+00
     0.0000000000E+00     0.0000000000E+00     0.0000000000E+00     0.0000000000E+00
     0.0000000000E+00     0.0000000000E+00     0.0000000000E+00     0.0000000000E+00
     0.0000000000E+00     0.0000000000E+00     0.0000000000E+00     0.0000000000E+00
     0.0000000000E+00     0.0000000000E+00     0.0000000000E+00     0.0000000000E+00
     0.0000000000E+00     0.0000000000E+00     0.0000000000E+00     0.0000000000E+00
     0.0000000000E+00     0.0000000000E+00     0.0000000000E+00     0.0000000000E+00
     0.0000000000E+00     0.0000000000E+00     0.0000000000E+00     0.0000000000E+00
     0.0000000000E+00     0.0000000000E+00     0.0000000000E+00     0.0000000000E+00
     0.0000000000E+00     0.0000000000E+00     0.0000000000E+00     0.0000000000E+00
     0.0000000000E+00     0.0000000000E+00     0.0000000000E+00     0.0000000000E+00
     0.0000000000E+00     0.0000000000E+00     0.0000000000E+00     0.0000000000E+00
     0.0000000000E+00     0.0000000000E+00     0.0000000000E+00     0.0000000000E+00
     0.0000000000E+00     0.0000000000E+00     0.0000000000E+00     0.0000000000E+00
     0.0000000000E+00     0.0000000000E+00     0.0000000000E+00     0.0000000000E+00
     0.0000000000E+00     0.0000000000E+00     0.0000000000E+00     0.0000000000E+00
     0.0000000000E+00     0.0000000000E+00     0.0000000000E+00     0.0000000000E+00
     0.0000000000E+00     0.0000000000E+00     0.0000000000E+00     0.0000000000E+00
     0.0000000000E+00     0.0000000000E+00     0.0000000000E+00     0.0000000000E+00
     0.0000000000E+00     0.0000000000E+00     0.0000000000E+00     0.0000000000E+00
     0.0000000000E+00     0.0000000000E+00     0.0000000000E+00     0.0000000000E+00
     0.0000000000E+00     0.0000000000E+00     0.0000000000E+00     0.0000000000E+00
     0.0000000000E+00     0.0000000000E+00     0.0000000000E+00     0.0000000000E+00
     0.0000000000E+00     0.0000000000E+00     0.0000000000E+00     0.0000000000E+00
     0.0000000000E+00     0.0000000000E+00     0.0000000000E+00     0.0000000000E+00
     0.0000000000E+00     0.0000000000E+00     0.0000000000E+00     0.0000000000E+00
     0.0000000000E+00     0.0000000000E+00     0.0000000000E+00     0.0000000000E+00
     0.0000000000E+00     0.0000000000E+00     0.0000000000E+00     0.0000000000E+00
     0.0000000000E+00     0.0000000000E+00     0.0000000000E+00     0.0000000000E+00
     0.0000000000E+00     0.0000000000E+00     0.0000000000E+00     0.0000000000E+00
     0.0000000000E+00     0.0000000000E+00     0.0000000000E+00     0.0000000000E+00
     0.0000000000E+00     0.0000000000E+00     0.0000000000E+00     0.0000000000E+00
     0.0000000000E+00     0.0000000000E+00     0.0000000000E+00     0.0000000000E+00
     0.0000000000E+00     0.0000000000E+00     0.0000000000E+00     0.0000000000E+00
     0.0000000000E+00     0.0000000000E+00     0.0000000000E+00     0.0000000000E+00
     0.0000000000E+00     0.0000000000E+00     0.0000000000E+00     0.0000000000E+00
     0.0000000000E+00     0.0000000000E+00     0.0000000000E+00     0.0000000000E+00
     0.0000000000E+00     0.0000000000E+00     0.0000000000E+00     0.0000000000E+00
     0.0000000000E+00     0.0000000000E+00     0.0000000000E+00     0.0000000000E+00
     0.0000000000E+00     0.0000000000E+00     0.0000000000E+00     0.0000000000E+00
     0.0000000000E+00     0.0000000000E+00     0.0000000000E+00     0.0000000000E+00
     0.0000000000E+00     0.0000000000E+00     0.0000000000E+00     0.0000000000E+00
     0.0000000000E+00     0.0000000000E+00     0.0000000000E+00     0.0000000000E+00
     0.0000000000E+00     0.0000000000E+00     0.0000000000E+00     0.0000000000E+00
     0.0000000000E+00     0.0000000000E+00     0.0000000000E+00     0.0000000000E+00
     0.0000000000E+00     0.0000000000E+00     0.0000000000E+00     0.0000000000E+00
     0.0000000000E+00     0.0000000000E+00     0.0000000000E+00     0.0000000000E+00
     0.0000000000E+00     0.0000000000E+00     0.0000000000E+00     0.0000000000E+00
     0.0000000000E+00     0.0000000000E+00     0.0000000000E+00     0.0000000000E+00
     0.0000000000E+00     0.0000000000E+00     0.0000000000E+00     0.0000000000E+00
     0.0000000000E+00     0.0000000000E+00     0.0000000000E+00     0.0000000000E+00
     0.0000000000E+00     0.0000000000E+00     0.0000000000E+00     0.0000000000E+00
     0.0000000000E+00     0.0000000000E+00     0.0000000000E+00     0.0000000000E+00
     0.0000000000E+00     0.0000000000E+00     0.0000000000E+00     0.0000000000E+00
     0.0000000000E+00     0.0000000000E+00     0.0000000000E+00     0.0000000000E+00
     0.0000000000E+00     0.0000000000E+00     0.0000000000E+00     0.0000000000E+00
     0.0000000000E+00     0.0000000000E+00     0.0000000000E+00     0.0000000000E+00
     0.0000000000E+00     0.0000000000E+00     0.0000000000E+00     0.0000000000E+00
     0.0000000000E+00     0.0000000000E+00     0.0000000000E+00     0.0000000000E+00
     0.0000000000E+00     0.0000000000E+00     0.0000000000E+00     0.0000000000E+00
     0.0000000000E+00     0.0000000000E+00     0.0000000000E+00     0.0000000000E+00
     0.0000000000E+00     0.0000000000E+00     0.0000000000E+00     0.0000000000E+00
     0.0000000000E+00     0.0000000000E+00     0.0000000000E+00     0.0000000000E+00
     0.0000000000E+00     0.0000000000E+00     0.0000000000E+00     0.0000000000E+00
     0.0000000000E+00     0.0000000000E+00     0.0000000000E+00     0.0000000000E+00
     0.0000000000E+00     0.0000000000E+00     0.0000000000E+00     0.0000000000E+00
     0.0000000000E+00     0.0000000000E+00     0.0000000000E+00     0.0000000000E+00
     0.0000000000E+00     0.0000000000E+00     0.0000000000E+00     0.0000000000E+00
     0.0000000000E+00     0.0000000000E+00     0.0000000000E+00     0.0000000000E+00
     0.0000000000E+00     0.0000000000E+00     0.0000000000E+00     0.0000000000E+00
     0.0000000000E+00     0.0000000000E+00     0.0000000000E+00     0.0000000000E+00
     0.0000000000E+00     0.0000000000E+00     0.0000000000E+00     0.0000000000E+00
     0.0000000000E+00     0.0000000000E+00     0.0000000000E+00     0.0000000000E+00
     0.0000000000E+00     0.0000000000E+00     0.0000000000E+00     0.0000000000E+00
     0.0000000000E+00     0.0000000000E+00     0.0000000000E+00     0.0000000000E+00
     0.0000000000E+00     0.0000000000E+00     0.0000000000E+00     0.0000000000E+00
     0.0000000000E+00     0.0000000000E+00     0.0000000000E+00     0.0000000000E+00
     0.0000000000E+00     0.0000000000E+00     0.0000000000E+00     0.0000000000E+00
     0.0000000000E+00     0.0000000000E+00     0.0000000000E+00     0.0000000000E+00
     0.0000000000E+00     0.0000000000E+00     0.0000000000E+00     0.0000000000E+00
     0.0000000000E+00     0.0000000000E+00     0.0000000000E+00     0.0000000000E+00
     0.0000000000E+00     0.0000000000E+00     0.0000000000E+00     0.0000000000E+00
     0.0000000000E+00     0.0000000000E+00     0.0000000000E+00     0.0000000000E+00
     0.0000000000E+00     0.0000000000E+00     0.0000000000E+00     0.0000000000E+00
     0.0000000000E+00     0.0000000000E+00     0.0000000000E+00     0.0000000000E+00
     0.0000000000E+00     0.0000000000E+00     0.0000000000E+00     0.0000000000E+00
     0.0000000000E+00     0.0000000000E+00     0.0000000000E+00     0.0000000000E+00
     0.0000000000E+00     0.0000000000E+00     0.0000000000E+00     0.0000000000E+00
     0.0000000000E+00     0.0000000000E+00     0.0000000000E+00     0.0000000000E+00
     0.0000000000E+00     0.0000000000E+00     0.0000000000E+00     0.0000000000E+00
     0.0000000000E+00     0.0000000000E+00     0.0000000000E+00     0.0000000000E+00
     0.0000000000E+00     0.0000000000E+00     0.0000000000E+00     0.0000000000E+00
     0.0000000000E+00     0.0000000000E+00     0.0000000000E+00     0.0000000000E+00
     0.0000000000E+00     0.0000000000E+00     0.0000000000E+00     0.0000000000E+00
     0.0000000000E+00     0.0000000000E+00     0.0000000000E+00     0.0000000000E+00
     0.0000000000E+00     0.0000000000E+00     0.0000000000E+00     0.0000000000E+00
     0.0000000000E+00     0.0000000000E+00     0.0000000000E+00     0.0000000000E+00
     0.0000000000E+00     0.0000000000E+00     0.0000000000E+00     0.0000000000E+00
     0.0000000000E+00     0.0000000000E+00     0.0000000000E+00     0.0000000000E+00
     0.0000000000E+00     0.0000000000E+00     0.0000000000E+00     0.0000000000E+00
     0.0000000000E+00     0.0000000000E+00     0.0000000000E+00     0.0000000000E+00
     0.0000000000E+00     0.0000000000E+00     0.0000000000E+00     0.0000000000E+00
     0.0000000000E+00     0.0000000000E+00     0.0000000000E+00     0.0000000000E+00
     0.0000000000E+00     0.0000000000E+00     0.0000000000E+00     0.0000000000E+00
     0.0000000000E+00     0.0000000000E+00     0.0000000000E+00     0.0000000000E+00
     0.0000000000E+00     0.0000000000E+00     0.0000000000E+00     0.0000000000E+00
     0.0000000000E+00     0.0000000000E+00     0.0000000000E+00     0.0000000000E+00
     0.0000000000E+00     0.0000000000E+00     0.0000000000E+00     0.0000000000E+00
     0.0000000000E+00     0.0000000000E+00     0.0000000000E+00     0.0000000000E+00
     0.0000000000E+00     0.0000000000E+00     0.0000000000E+00     0.0000000000E+00
     0.0000000000E+00     0.0000000000E+00     0.0000000000E+00     0.0000000000E+00
     0.0000000000E+00     0.0000000000E+00     0.0000000000E+00     0.0000000000E+00
     0.0000000000E+00     0.0000000000E+00     0.0000000000E+00     0.0000000000E+00
     0.0000000000E+00     0.0000000000E+00     0.0000000000E+00     0.0000000000E+00
     0.0000000000E+00     0.0000000000E+00     0.0000000000E+00     0.0000000000E+00
     0.0000000000E+00     0.0000000000E+00     0.0000000000E+00     0.0000000000E+00
     0.0000000000E+00     0.0000000000E+00     0.0000000000E+00     0.0000000000E+00
     0.0000000000E+00     0.0000000000E+00     0.0000000000E+00     0.0000000000E+00
     0.0000000000E+00     0.0000000000E+00     0.0000000000E+00     0.0000000000E+00
     0.0000000000E+00     0.0000000000E+00     0.0000000000E+00     0.0000000000E+00
     0.0000000000E+00     0.0000000000E+00     0.0000000000E+00     0.0000000000E+00
     0.0000000000E+00     0.0000000000E+00     0.0000000000E+00     0.0000000000E+00
     0.0000000000E+00     0.0000000000E+00     0.0000000000E+00     0.0000000000E+00
     0.0000000000E+00     0.0000000000E+00     0.0000000000E+00     0.0000000000E+00
     0.0000000000E+00     0.0000000000E+00     0.0000000000E+00     0.0000000000E+00
     0.0000000000E+00     0.0000000000E+00     0.0000000000E+00     0.0000000000E+00
     0.0000000000E+00     0.0000000000E+00     0.0000000000E+00     0.0000000000E+00
     0.0000000000E+00     0.0000000000E+00     0.0000000000E+00     0.0000000000E+00
     0.0000000000E+00     0.0000000000E+00     0.0000000000E+00     0.0000000000E+00
     0.0000000000E+00     0.0000000000E+00     0.0000000000E+00     0.0000000000E+00
     0.0000000000E+00     0.0000000000E+00     0.0000000000E+00     0.0000000000E+00
     0.0000000000E+00     0.0000000000E+00     0.0000000000E+00     0.0000000000E+00
     0.0000000000E+00     0.0000000000E+00     0.0000000000E+00     0.0000000000E+00
     0.0000000000E+00     0.0000000000E+00     0.0000000000E+00     0.0000000000E+00
     0.0000000000E+00     0.0000000000E+00     0.0000000000E+00     0.0000000000E+00
     0.0000000000E+00     0.0000000000E+00     0.0000000000E+00     0.0000000000E+00
     0.0000000000E+00     0.0000000000E+00     0.0000000000E+00     0.0000000000E+00
     0.0000000000E+00     0.0000000000E+00     0.0000000000E+00     0.0000000000E+00
     0.0000000000E+00     0.0000000000E+00     0.0000000000E+00     0.0000000000E+00
     0.0000000000E+00     0.0000000000E+00     0.0000000000E+00     0.0000000000E+00
     0.0000000000E+00     0.0000000000E+00     0.0000000000E+00     0.0000000000E+00
     0.0000000000E+00     0.0000000000E+00     0.0000000000E+00     0.0000000000E+00
     0.0000000000E+00     0.0000000000E+00     0.0000000000E+00     0.0000000000E+00
     0.0000000000E+00     0.0000000000E+00     0.0000000000E+00     0.0000000000E+00
     0.0000000000E+00     0.0000000000E+00     0.0000000000E+00     0.0000000000E+00
     0.0000000000E+00     0.0000000000E+00     0.0000000000E+00     0.0000000000E+00
     0.0000000000E+00     0.0000000000E+00     0.0000000000E+00     0.0000000000E+00
     0.0000000000E+00     0.0000000000E+00     0.0000000000E+00     0.0000000000E+00
     0.0000000000E+00     0.0000000000E+00     0.0000000000E+00     0.0000000000E+00
     0.0000000000E+00     0.0000000000E+00     0.0000000000E+00     0.0000000000E+00
     0.0000000000E+00     0.0000000000E+00     0.0000000000E+00     0.0000000000E+00
     0.0000000000E+00     0.0000000000E+00     0.0000000000E+00     0.0000000000E+00
     0.0000000000E+00     0.0000000000E+00     0.0000000000E+00     0.0000000000E+00
     0.0000000000E+00     0.0000000000E+00     0.0000000000E+00     0.0000000000E+00
     0.0000000000E+00     0.0000000000E+00     0.0000000000E+00     0.0000000000E+00
     0.0000000000E+00     0.0000000000E+00     0.0000000000E+00     0.0000000000E+00
     0.0000000000E+00     0.0000000000E+00     0.0000000000E+00     0.0000000000E+00
     0.0000000000E+00     0.0000000000E+00     0.0000000000E+00     0.0000000000E+00
     0.0000000000E+00     0.0000000000E+00     0.0000000000E+00     0.0000000000E+00
     0.0000000000E+00     0.0000000000E+00     0.0000000000E+00     0.0000000000E+00
     0.0000000000E+00     0.0000000000E+00     0.0000000000E+00     0.0000000000E+00
     0.0000000000E+00     0.0000000000E+00     0.0000000000E+00     0.0000000000E+00
     0.0000000000E+00     0.0000000000E+00     0.0000000000E+00     0.0000000000E+00
     0.0000000000E+00     0.0000000000E+00     0.0000000000E+00     0.0000000000E+00
     0.0000000000E+00     0.0000000000E+00     0.0000000000E+00     0.0000000000E+00
     0.0000000000E+00     0.0000000000E+00     0.0000000000E+00     0.0000000000E+00
     0.0000000000E+00     0.0000000000E+00     0.0000000000E+00     0.0000000000E+00
     0.0000000000E+00     0.0000000000E+00     0.0000000000E+00     0.0000000000E+00
     0.0000000000E+00     0.0000000000E+00     0.0000000000E+00     0.0000000000E+00
     0.0000000000E+00     0.0000000000E+00     0.0000000000E+00     0.0000000000E+00
     0.0000000000E+00     0.0000000000E+00     0.0000000000E+00     0.0000000000E+00
     0.0000000000E+00     0.0000000000E+00     0.0000000000E+00     0.0000000000E+00
     0.0000000000E+00     0.0000000000E+00     0.0000000000E+00     0.0000000000E+00
     0.0000000000E+00     0.0000000000E+00     0.0000000000E+00     0.0000000000E+00
     0.0000000000E+00     0.0000000000E+00     0.0000000000E+00     0.0000000000E+00
     0.0000000000E+00     0.0000000000E+00     0.0000000000E+00     0.0000000000E+00
     0.0000000000E+00     0.0000000000E+00     0.0000000000E+00     0.0000000000E+00
     0.0000000000E+00     0.0000000000E+00     0.0000000000E+00     0.0000000000E+00
     0.0000000000E+00     0.0000000000E+00     0.0000000000E+00     0.0000000000E+00
     0.0000000000E+00     0.0000000000E+00     0.0000000000E+00     0.0000000000E+00
     0.0000000000E+00     0.0000000000E+00     0.0000000000E+00     0.0000000000E+00
     0.0000000000E+00     0.0000000000E+00     0.0000000000E+00     0.0000000000E+00
     0.0000000000E+00     0.0000000000E+00     0.0000000000E+00     0.0000000000E+00
     0.0000000000E+00     0.0000000000E+00     0.0000000000E+00     0.0000000000E+00
     0.0000000000E+00     0.0000000000E+00     0.0000000000E+00     0.0000000000E+00
     0.0000000000E+00     0.0000000000E+00     0.0000000000E+00     0.0000000000E+00
     0.0000000000E+00     0.0000000000E+00     0.0000000000E+00     0.0000000000E+00
     0.0000000000E+00     0.0000000000E+00     0.0000000000E+00     0.0000000000E+00
     0.0000000000E+00     0.0000000000E+00     0.0000000000E+00     0.0000000000E+00
     0.0000000000E+00     0.0000000000E+00     0.0000000000E+00     0.0000000000E+00
     0.0000000000E+00     0.0000000000E+00     0.0000000000E+00     0.0000000000E+00
     0.0000000000E+00     0.0000000000E+00     0.0000000000E+00     0.0000000000E+00
     0.0000000000E+00     0.0000000000E+00     0.0000000000E+00     0.0000000000E+00
     0.0000000000E+00     0.0000000000E+00     0.0000000000E+00     0.0000000000E+00
     0.0000000000E+00     0.0000000000E+00     0.0000000000E+00     0.0000000000E+00
     0.0000000000E+00     0.0000000000E+00     0.0000000000E+00     0.0000000000E+00
     0.0000000000E+00     0.0000000000E+00     0.0000000000E+00     0.0000000000E+00
     0.0000000000E+00     0.0000000000E+00     0.0000000000E+00     0.0000000000E+00
     0.0000000000E+00     0.0000000000E+00     0.0000000000E+00     0.0000000000E+00
     0.0000000000E+00     0.0000000000E+00     0.0000000000E+00     0.0000000000E+00
     0.0000000000E+00     0.0000000000E+00     0.0000000000E+00     0.0000000000E+00
     0.0000000000E+00     0.0000000000E+00     0.0000000000E+00     0.0000000000E+00
     0.0000000000E+00     0.0000000000E+00     0.0000000000E+00     0.0000000000E+00
     0.0000000000E+00     0.0000000000E+00     0.0000000000E+00     0.0000000000E+00
     0.0000000000E+00     0.0000000000E+00     0.0000000000E+00     0.0000000000E+00
     0.0000000000E+00     0.0000000000E+00     0.0000000000E+00     0.0000000000E+00
     0.0000000000E+00     0.0000000000E+00     0.0000000000E+00     0.0000000000E+00
     0.0000000000E+00     0.0000000000E+00     0.0000000000E+00     0.0000000000E+00
     0.0000000000E+00     0.0000000000E+00     0.0000000000E+00     0.0000000000E+00
     0.0000000000E+00     0.0000000000E+00     0.0000000000E+00     0.0000000000E+00
     0.0000000000E+00     0.0000000000E+00     0.0000000000E+00     0.0000000000E+00
     0.0000000000E+00     0.0000000000E+00     0.0000000000E+00     0.0000000000E+00
     0.0000000000E+00     0.0000000000E+00     0.0000000000E+00     0.0000000000E+00
     0.0000000000E+00     0.0000000000E+00     0.0000000000E+00     0.0000000000E+00
     0.0000000000E+00     0.0000000000E+00     0.0000000000E+00     0.0000000000E+00
     0.0000000000E+00     0.0000000000E+00     0.0000000000E+00     0.0000000000E+00
     0.0000000000E+00     0.0000000000E+00     0.0000000000E+00     0.0000000000E+00
     0.0000000000E+00     0.0000000000E+00     0.0000000000E+00     0.0000000000E+00
     0.0000000000E+00     0.0000000000E+00     0.0000000000E+00     0.0000000000E+00
     0.0000000000E+00     0.0000000000E+00     0.0000000000E+00     0.0000000000E+00
     0.0000000000E+00     0.0000000000E+00     0.0000000000E+00     0.0000000000E+00
     0.0000000000E+00     0.0000000000E+00     0.0000000000E+00     0.0000000000E+00
     0.0000000000E+00     0.0000000000E+00     0.0000000000E+00     0.0000000000E+00
     0.0000000000E+00     0.0000000000E+00     0.0000000000E+00     0.0000000000E+00
     0.0000000000E+00     0.0000000000E+00     0.0000000000E+00     0.0000000000E+00
     0.0000000000E+00     0.0000000000E+00     0.0000000000E+00     0.0000000000E+00
     0.0000000000E+00     0.0000000000E+00     0.0000000000E+00     0.0000000000E+00
     0.0000000000E+00     0.0000000000E+00     0.0000000000E+00     0.0000000000E+00
     0.0000000000E+00     0.0000000000E+00     0.0000000000E+00     0.0000000000E+00
     0.0000000000E+00     0.0000000000E+00     0.0000000000E+00     0.0000000000E+00
     0.0000000000E+00     0.0000000000E+00     0.0000000000E+00     0.0000000000E+00
     0.0000000000E+00     0.0000000000E+00     0.0000000000E+00     0.0000000000E+00
     0.0000000000E+00     0.0000000000E+00     0.0000000000E+00     0.0000000000E+00
     0.0000000000E+00     0.0000000000E+00     0.0000000000E+00     0.0000000000E+00
     0.0000000000E+00     0.0000000000E+00     0.0000000000E+00     0.0000000000E+00
     0.0000000000E+00     0.0000000000E+00     0.0000000000E+00     0.0000000000E+00
     0.0000000000E+00     0.0000000000E+00     0.0000000000E+00     0.0000000000E+00
     0.0000000000E+00     0.0000000000E+00     0.0000000000E+00     0.0000000000E+00
     0.0000000000E+00     0.0000000000E+00     0.0000000000E+00     0.0000000000E+00
     0.0000000000E+00     0.0000000000E+00     0.0000000000E+00     0.0000000000E+00
     0.0000000000E+00     0.0000000000E+00     0.0000000000E+00     0.0000000000E+00
     0.0000000000E+00     0.0000000000E+00     0.0000000000E+00     0.0000000000E+00
     0.0000000000E+00     0.0000000000E+00     0.0000000000E+00     0.0000000000E+00
     0.0000000000E+00     0.0000000000E+00     0.0000000000E+00     0.0000000000E+00
     0.0000000000E+00     0.0000000000E+00     0.0000000000E+00     0.0000000000E+00
     0.0000000000E+00     0.0000000000E+00     0.0000000000E+00     0.0000000000E+00
     0.0000000000E+00     0.0000000000E+00     0.0000000000E+00     0.0000000000E+00
     0.0000000000E+00     0.0000000000E+00     0.0000000000E+00     0.0000000000E+00
     0.0000000000E+00     0.0000000000E+00     0.0000000000E+00     0.0000000000E+00
     0.0000000000E+00     0.0000000000E+00     0.0000000000E+00     0.0000000000E+00
     0.0000000000E+00     0.0000000000E+00     0.0000000000E+00     0.0000000000E+00
     0.0000000000E+00     0.0000000000E+00     0.0000000000E+00     0.0000000000E+00
     0.0000000000E+00     0.0000000000E+00     0.0000000000E+00     0.0000000000E+00
     0.0000000000E+00     0.0000000000E+00     0.0000000000E+00     0.0000000000E+00
     0.0000000000E+00     0.0000000000E+00     0.0000000000E+00     0.0000000000E+00
     0.0000000000E+00     0.0000000000E+00     0.0000000000E+00     0.0000000000E+00
     0.0000000000E+00     0.0000000000E+00     0.0000000000E+00     0.0000000000E+00
     0.0000000000E+00     0.0000000000E+00     0.0000000000E+00     0.0000000000E+00
     0.0000000000E+00     0.0000000000E+00     0.0000000000E+00     0.0000000000E+00
     0.0000000000E+00     0.0000000000E+00     0.0000000000E+00     0.0000000000E+00
     0.0000000000E+00     0.0000000000E+00     0.0000000000E+00     0.0000000000E+00
     0.0000000000E+00     0.0000000000E+00     0.0000000000E+00     0.0000000000E+00
     0.0000000000E+00     0.0000000000E+00     0.0000000000E+00     0.0000000000E+00
     0.0000000000E+00     0.0000000000E+00     0.0000000000E+00     0.0000000000E+00
     0.0000000000E+00     0.0000000000E+00     0.0000000000E+00     0.0000000000E+00
     0.0000000000E+00     0.0000000000E+00     0.0000000000E+00     0.0000000000E+00
     0.0000000000E+00     0.0000000000E+00     0.0000000000E+00     0.0000000000E+00
     0.0000000000E+00     0.0000000000E+00     0.0000000000E+00     0.0000000000E+00
     0.0000000000E+00     0.0000000000E+00     0.0000000000E+00     0.0000000000E+00
     0.0000000000E+00     0.0000000000E+00     0.0000000000E+00     0.0000000000E+00
     0.0000000000E+00     0.0000000000E+00     0.0000000000E+00     0.0000000000E+00
     0.0000000000E+00     0.0000000000E+00     0.0000000000E+00     0.0000000000E+00
     0.0000000000E+00     0.0000000000E+00     0.0000000000E+00     0.0000000000E+00
     0.0000000000E+00     0.0000000000E+00     0.0000000000E+00     0.0000000000E+00
     0.0000000000E+00     0.0000000000E+00     0.0000000000E+00     0.0000000000E+00
     0.0000000000E+00     0.0000000000E+00     0.0000000000E+00     0.0000000000E+00
     0.0000000000E+00     0.0000000000E+00     0.0000000000E+00     0.0000000000E+00
     0.0000000000E+00     0.0000000000E+00     0.0000000000E+00     0.0000000000E+00
     0.0000000000E+00     0.0000000000E+00     0.0000000000E+00     0.0000000000E+00
     0.0000000000E+00     0.0000000000E+00     0.0000000000E+00     0.0000000000E+00
     0.0000000000E+00     0.0000000000E+00     0.0000000000E+00     0.0000000000E+00
     0.0000000000E+00     0.0000000000E+00     0.0000000000E+00     0.0000000000E+00
     0.0000000000E+00     0.0000000000E+00     0.0000000000E+00     0.0000000000E+00
     0.0000000000E+00     0.0000000000E+00     0.0000000000E+00     0.0000000000E+00
     0.0000000000E+00     0.0000000000E+00     0.0000000000E+00     0.0000000000E+00
     0.0000000000E+00     0.0000000000E+00     0.0000000000E+00     0.0000000000E+00
     0.0000000000E+00     0.0000000000E+00     0.0000000000E+00     0.0000000000E+00
     0.0000000000E+00     0.0000000000E+00     0.0000000000E+00     0.0000000000E+00
     0.0000000000E+00     0.0000000000E+00     0.0000000000E+00     0.0000000000E+00
     0.0000000000E+00     0.0000000000E+00     0.0000000000E+00     0.0000000000E+00
     0.0000000000E+00     0.0000000000E+00     0.0000000000E+00     0.0000000000E+00
     0.0000000000E+00     0.0000000000E+00     0.0000000000E+00     0.0000000000E+00
     0.0000000000E+00     0.0000000000E+00     0.0000000000E+00     0.0000000000E+00
     0.0000000000E+00     0.0000000000E+00     0.0000000000E+00     0.0000000000E+00
     0.0000000000E+00     0.0000000000E+00     0.0000000000E+00     0.0000000000E+00
     0.0000000000E+00     0.0000000000E+00     0.0000000000E+00     0.0000000000E+00
     0.0000000000E+00     0.0000000000E+00     0.0000000000E+00     0.0000000000E+00
     0.0000000000E+00     0.0000000000E+00     0.0000000000E+00     0.0000000000E+00
     0.0000000000E+00     0.0000000000E+00     0.0000000000E+00     0.0000000000E+00
     0.0000000000E+00     0.0000000000E+00     0.0000000000E+00     0.0000000000E+00
     0.0000000000E+00     0.0000000000E+00     0.0000000000E+00     0.0000000000E+00
     0.0000000000E+00     0.0000000000E+00     0.0000000000E+00     0.0000000000E+00
     0.0000000000E+00     0.0000000000E+00     0.0000000000E+00     0.0000000000E+00
     0.0000000000E+00     0.0000000000E+00     0.0000000000E+00     0.0000000000E+00
     0.0000000000E+00     0.0000000000E+00     0.0000000000E+00     0.0000000000E+00
     0.0000000000E+00     0.0000000000E+00     0.0000000000E+00     0.0000000000E+00
     0.0000000000E+00     0.0000000000E+00     0.0000000000E+00     0.0000000000E+00
     0.0000000000E+00     0.0000000000E+00     0.0000000000E+00     0.0000000000E+00
     0.0000000000E+00     0.0000000000E+00     0.0000000000E+00     0.0000000000E+00
     0.0000000000E+00     0.0000000000E+00     0.0000000000E+00     0.0000000000E+00
     0.0000000000E+00     0.0000000000E+00     0.0000000000E+00     0.0000000000E+00
     0.0000000000E+00     0.0000000000E+00     0.0000000000E+00     0.0000000000E+00
     0.0000000000E+00     0.0000000000E+00     0.0000000000E+00     0.0000000000E+00
     0.0000000000E+00     0.0000000000E+00     0.0000000000E+00     0.0000000000E+00
     0.0000000000E+00     0.0000000000E+00     0.0000000000E+00     0.0000000000E+00
     0.0000000000E+00     0.0000000000E+00     0.0000000000E+00     0.0000000000E+00
     0.0000000000E+00     0.0000000000E+00     0.0000000000E+00     0.0000000000E+00
     0.0000000000E+00     0.0000000000E+00     0.0000000000E+00     0.0000000000E+00
     0.0000000000E+00     0.0000000000E+00     0.0000000000E+00     0.0000000000E+00
     0.0000000000E+00     0.0000000000E+00     0.0000000000E+00     0.0000000000E+00
     0.0000000000E+00     0.0000000000E+00     0.0000000000E+00     0.0000000000E+00
     0.0000000000E+00     0.0000000000E+00     0.0000000000E+00     0.0000000000E+00
     0.0000000000E+00     0.0000000000E+00     0.0000000000E+00     0.0000000000E+00
     0.0000000000E+00     0.0000000000E+00     0.0000000000E+00     0.0000000000E+00
     0.0000000000E+00     0.0000000000E+00     0.0000000000E+00     0.0000000000E+00
     0.0000000000E+00     0.0000000000E+00     0.0000000000E+00     0.0000000000E+00
     0.0000000000E+00     0.0000000000E+00     0.0000000000E+00     0.0000000000E+00
     0.0000000000E+00     0.0000000000E+00     0.0000000000E+00     0.0000000000E+00
     0.0000000000E+00     0.0000000000E+00     0.0000000000E+00     0.0000000000E+00
     0.0000000000E+00     0.0000000000E+00     0.0000000000E+00     0.0000000000E+00
     0.0000000000E+00     0.0000000000E+00     0.0000000000E+00     0.0000000000E+00
     0.0000000000E+00     0.0000000000E+00     0.0000000000E+00     0.0000000000E+00
     0.0000000000E+00     0.0000000000E+00     0.0000000000E+00     0.0000000000E+00
     0.0000000000E+00     0.0000000000E+00     0.0000000000E+00     0.0000000000E+00
     0.0000000000E+00     0.0000000000E+00     0.0000000000E+00     0.0000000000E+00
     0.0000000000E+00     0.0000000000E+00     0.0000000000E+00     0.0000000000E+00
     0.0000000000E+00     0.0000000000E+00     0.0000000000E+00     0.0000000000E+00
     0.0000000000E+00     0.0000000000E+00     0.0000000000E+00     0.0000000000E+00
     0.0000000000E+00     0.0000000000E+00     0.0000000000E+00     0.0000000000E+00
     0.0000000000E+00     0.0000000000E+00     0.0000000000E+00     0.0000000000E+00
     0.0000000000E+00     0.0000000000E+00     0.0000000000E+00     0.0000000000E+00
     0.0000000000E+00     0.0000000000E+00     0.0000000000E+00     0.0000000000E+00
     0.0000000000E+00     0.0000000000E+00     0.0000000000E+00     0.0000000000E+00
     0.0000000000E+00     0.0000000000E+00     0.0000000000E+00     0.0000000000E+00
     0.0000000000E+00     0.0000000000E+00     0.0000000000E+00     0.0000000000E+00
     0.0000000000E+00     0.0000000000E+00     0.0000000000E+00     0.0000000000E+00
     0.0000000000E+00     0.0000000000E+00     0.0000000000E+00     0.0000000000E+00
     0.0000000000E+00     0.0000000000E+00     0.0000000000E+00     0.0000000000E+00
     0.0000000000E+00     0.0000000000E+00     0.0000000000E+00     0.0000000000E+00
     0.0000000000E+00     0.0000000000E+00     0.0000000000E+00     0.0000000000E+00
     0.0000000000E+00     0.0000000000E+00     0.0000000000E+00     0.0000000000E+00
     0.0000000000E+00     0.0000000000E+00     0.0000000000E+00     0.0000000000E+00
     0.0000000000E+00     0.0000000000E+00     0.0000000000E+00     0.0000000000E+00
     0.0000000000E+00     0.0000000000E+00     0.0000000000E+00     0.0000000000E+00
     0.0000000000E+00     0.0000000000E+00     0.0000000000E+00     0.0000000000E+00
     0.0000000000E+00     0.0000000000E+00     0.0000000000E+00     0.0000000000E+00
     0.0000000000E+00     0.0000000000E+00     0.0000000000E+00     0.0000000000E+00
     0.0000000000E+00     0.0000000000E+00     0.0000000000E+00     0.0000000000E+00
     0.0000000000E+00     0.0000000000E+00     0.0000000000E+00     0.0000000000E+00
     0.0000000000E+00     0.0000000000E+00     0.0000000000E+00     0.0000000000E+00
     0.0000000000E+00     0.0000000000E+00     0.0000000000E+00     0.0000000000E+00
     0.0000000000E+00     0.0000000000E+00     0.0000000000E+00     0.0000000000E+00
     0.0000000000E+00     0.0000000000E+00     0.0000000000E+00     0.0000000000E+00
     0.0000000000E+00     0.0000000000E+00     0.0000000000E+00     0.0000000000E+00
     0.0000000000E+00     0.0000000000E+00     0.0000000000E+00     0.0000000000E+00
     0.0000000000E+00     0.0000000000E+00     0.0000000000E+00     0.0000000000E+00
     0.0000000000E+00     0.0000000000E+00     0.0000000000E+00     0.0000000000E+00
     0.0000000000E+00     0.0000000000E+00     0.0000000000E+00     0.0000000000E+00
     0.0000000000E+00     0.0000000000E+00     0.0000000000E+00     0.0000000000E+00
     0.0000000000E+00     0.0000000000E+00     0.0000000000E+00     0.0000000000E+00
     0.0000000000E+00     0.0000000000E+00     0.0000000000E+00     0.0000000000E+00
     0.0000000000E+00     0.0000000000E+00     0.0000000000E+00     0.0000000000E+00
     0.0000000000E+00     0.0000000000E+00     0.0000000000E+00     0.0000000000E+00
     0.0000000000E+00     0.0000000000E+00     0.0000000000E+00     0.0000000000E+00
     0.0000000000E+00     0.0000000000E+00     0.0000000000E+00     0.0000000000E+00
     0.0000000000E+00     0.0000000000E+00     0.0000000000E+00     0.0000000000E+00
     0.0000000000E+00     0.0000000000E+00     0.0000000000E+00     0.0000000000E+00
     0.0000000000E+00     0.0000000000E+00     0.0000000000E+00     0.0000000000E+00
     0.0000000000E+00     0.0000000000E+00     0.0000000000E+00     0.0000000000E+00
     0.0000000000E+00     0.0000000000E+00     0.0000000000E+00     0.0000000000E+00
     0.0000000000E+00     0.0000000000E+00     0.0000000000E+00     0.0000000000E+00
     0.0000000000E+00     0.0000000000E+00     0.0000000000E+00     0.0000000000E+00
     0.0000000000E+00     0.0000000000E+00     0.0000000000E+00     0.0000000000E+00
     0.0000000000E+00     0.0000000000E+00     0.0000000000E+00     0.0000000000E+00
     0.0000000000E+00     0.0000000000E+00     0.0000000000E+00     0.0000000000E+00
     0.0000000000E+00     0.0000000000E+00     0.0000000000E+00     0.0000000000E+00
     0.0000000000E+00     0.0000000000E+00     0.0000000000E+00     0.0000000000E+00
     0.0000000000E+00     0.0000000000E+00     0.0000000000E+00     0.0000000000E+00
     0.0000000000E+00     0.0000000000E+00     0.0000000000E+00     0.0000000000E+00
     0.0000000000E+00     0.0000000000E+00     0.0000000000E+00     0.0000000000E+00
     0.0000000000E+00     0.0000000000E+00     0.0000000000E+00     0.0000000000E+00
     0.0000000000E+00     0.0000000000E+00     0.0000000000E+00     0.0000000000E+00
     0.0000000000E+00     0.0000000000E+00     0.0000000000E+00     0.0000000000E+00
     0.0000000000E+00     0.0000000000E+00     0.0000000000E+00     0.0000000000E+00
     0.0000000000E+00     0.0000000000E+00     0.0000000000E+00     0.0000000000E+00
     0.0000000000E+00     0.0000000000E+00     0.0000000000E+00     0.0000000000E+00
     0.0000000000E+00     0.0000000000E+00     0.0000000000E+00     0.0000000000E+00
     0.0000000000E+00     0.0000000000E+00     0.0000000000E+00     0.0000000000E+00
     0.0000000000E+00     0.0000000000E+00     0.0000000000E+00     0.0000000000E+00
     0.0000000000E+00     0.0000000000E+00     0.0000000000E+00     0.0000000000E+00
     0.0000000000E+00     0.0000000000E+00     0.0000000000E+00     0.0000000000E+00
     0.0000000000E+00     0.0000000000E+00     0.0000000000E+00     0.0000000000E+00
     0.0000000000E+00     0.0000000000E+00     0.0000000000E+00     0.0000000000E+00
     0.0000000000E+00     0.0000000000E+00     0.0000000000E+00     0.0000000000E+00
     0.0000000000E+00     0.0000000000E+00     0.0000000000E+00     0.0000000000E+00
     0.0000000000E+00     0.0000000000E+00     0.0000000000E+00     0.0000000000E+00
     0.0000000000E+00     0.0000000000E+00     0.0000000000E+00     0.0000000000E+00
     0.0000000000E+00     0.0000000000E+00     0.0000000000E+00     0.0000000000E+00
     0.0000000000E+00     0.0000000000E+00     0.0000000000E+00     0.0000000000E+00
     0.0000000000E+00     0.0000000000E+00     0.0000000000E+00     0.0000000000E+00
     0.0000000000E+00     0.0000000000E+00     0.0000000000E+00     0.0000000000E+00
     0.0000000000E+00     0.0000000000E+00     0.0000000000E+00     0.0000000000E+00
     0.0000000000E+00     0.0000000000E+00     0.0000000000E+00     0.0000000000E+00
     0.0000000000E+00     0.0000000000E+00     0.0000000000E+00     0.0000000000E+00
     0.0000000000E+00     0.0000000000E+00     0.0000000000E+00     0.0000000000E+00
     0.0000000000E+00     0.0000000000E+00     0.0000000000E+00     0.0000000000E+00
     0.0000000000E+00     0.0000000000E+00     0.0000000000E+00     0.0000000000E+00
     0.0000000000E+00     0.0000000000E+00     0.0000000000E+00     0.0000000000E+00
     0.0000000000E+00     0.0000000000E+00     0.0000000000E+00     0.0000000000E+00
     0.0000000000E+00     0.0000000000E+00     0.0000000000E+00     0.0000000000E+00
     0.0000000000E+00     0.0000000000E+00     0.0000000000E+00     0.0000000000E+00
     0.0000000000E+00     0.0000000000E+00     0.0000000000E+00     0.0000000000E+00
     0.0000000000E+00     0.0000000000E+00     0.0000000000E+00     0.0000000000E+00
     0.0000000000E+00     0.0000000000E+00     0.0000000000E+00     0.0000000000E+00
     0.0000000000E+00     0.0000000000E+00     0.0000000000E+00     0.0000000000E+00
     0.0000000000E+00     0.0000000000E+00     0.0000000000E+00     0.0000000000E+00
     0.0000000000E+00     0.0000000000E+00     0.0000000000E+00     0.0000000000E+00
     0.0000000000E+00     0.0000000000E+00     0.0000000000E+00     0.0000000000E+00
     0.0000000000E+00     0.0000000000E+00     0.0000000000E+00     0.0000000000E+00
     0.0000000000E+00     0.0000000000E+00     0.0000000000E+00     0.0000000000E+00
     0.0000000000E+00     0.0000000000E+00     0.0000000000E+00     0.0000000000E+00
     0.0000000000E+00     0.0000000000E+00     0.0000000000E+00     0.0000000000E+00
     0.0000000000E+00     0.0000000000E+00     0.0000000000E+00     0.0000000000E+00
     0.0000000000E+00     0.0000000000E+00     0.0000000000E+00     0.0000000000E+00
     0.0000000000E+00     0.0000000000E+00     0.0000000000E+00     0.0000000000E+00
     0.0000000000E+00     0.0000000000E+00     0.0000000000E+00     0.0000000000E+00
     0.0000000000E+00     0.0000000000E+00     0.0000000000E+00     0.0000000000E+00
     0.0000000000E+00     0.0000000000E+00     0.0000000000E+00     0.0000000000E+00
     0.0000000000E+00     0.0000000000E+00     0.0000000000E+00     0.0000000000E+00
     0.0000000000E+00     0.0000000000E+00     0.0000000000E+00     0.0000000000E+00
     0.0000000000E+00     0.0000000000E+00     0.0000000000E+00     0.0000000000E+00
     0.0000000000E+00     0.0000000000E+00     0.0000000000E+00     0.0000000000E+00
     0.0000000000E+00     0.0000000000E+00     0.0000000000E+00     0.0000000000E+00
     0.0000000000E+00     0.0000000000E+00     0.0000000000E+00     0.0000000000E+00
     0.0000000000E+00     0.0000000000E+00     0.0000000000E+00     0.0000000000E+00
     0.0000000000E+00     0.0000000000E+00     0.0000000000E+00     0.0000000000E+00
     0.0000000000E+00     0.0000000000E+00     0.0000000000E+00     0.0000000000E+00
     0.0000000000E+00     0.0000000000E+00     0.0000000000E+00     0.0000000000E+00
     0.0000000000E+00     0.0000000000E+00     0.0000000000E+00     0.0000000000E+00
     0.0000000000E+00     0.0000000000E+00     0.0000000000E+00     0.0000000000E+00
     0.0000000000E+00     0.0000000000E+00     0.0000000000E+00     0.0000000000E+00
     0.0000000000E+00     0.0000000000E+00     0.0000000000E+00     0.0000000000E+00
     0.0000000000E+00     0.0000000000E+00     0.0000000000E+00     0.0000000000E+00
     0.0000000000E+00     0.0000000000E+00     0.0000000000E+00     0.0000000000E+00
     0.0000000000E+00     0.0000000000E+00     0.0000000000E+00     0.0000000000E+00
     0.0000000000E+00     0.0000000000E+00     0.0000000000E+00     0.0000000000E+00
     0.0000000000E+00     0.0000000000E+00     0.0000000000E+00     0.0000000000E+00
     0.0000000000E+00     0.0000000000E+00     0.0000000000E+00     0.0000000000E+00
     0.0000000000E+00     0.0000000000E+00     0.0000000000E+00     0.0000000000E+00
     0.0000000000E+00     0.0000000000E+00     0.0000000000E+00     0.0000000000E+00
     0.0000000000E+00     0.0000000000E+00     0.0000000000E+00     0.0000000000E+00
     0.0000000000E+00     0.0000000000E+00     0.0000000000E+00     0.0000000000E+00
     0.0000000000E+00     0.0000000000E+00     0.0000000000E+00     0.0000000000E+00
     0.0000000000E+00     0.0000000000E+00     0.0000000000E+00     0.0000000000E+00
     0.0000000000E+00     0.0000000000E+00     0.0000000000E+00     0.0000000000E+00
     0.0000000000E+00     0.0000000000E+00     0.0000000000E+00     0.0000000000E+00
     0.0000000000E+00     0.0000000000E+00     0.0000000000E+00     0.0000000000E+00
     0.0000000000E+00     0.0000000000E+00     0.0000000000E+00     0.0000000000E+00
     0.0000000000E+00     0.0000000000E+00     0.0000000000E+00     0.0000000000E+00
     0.0000000000E+00     0.0000000000E+00     0.0000000000E+00     0.0000000000E+00
     0.0000000000E+00     0.0000000000E+00     0.0000000000E+00     0.0000000000E+00
     0.0000000000E+00     0.0000000000E+00     0.0000000000E+00     0.0000000000E+00
     0.0000000000E+00     0.0000000000E+00     0.0000000000E+00     0.0000000000E+00
     0.0000000000E+00     0.0000000000E+00     0.0000000000E+00     0.0000000000E+00
     0.0000000000E+00     0.0000000000E+00     0.0000000000E+00     0.0000000000E+00
     0.0000000000E+00     0.0000000000E+00     0.0000000000E+00     0.0000000000E+00
     0.0000000000E+00     0.0000000000E+00     0.0000000000E+00     0.0000000000E+00
     0.0000000000E+00     0.0000000000E+00     0.0000000000E+00     0.0000000000E+00
     0.0000000000E+00     0.0000000000E+00     0.0000000000E+00     0.0000000000E+00
     0.0000000000E+00     0.0000000000E+00     0.0000000000E+00     0.0000000000E+00
     0.0000000000E+00     0.0000000000E+00     0.0000000000E+00     0.0000000000E+00
     0.0000000000E+00     0.0000000000E+00     0.0000000000E+00     0.0000000000E+00
     0.0000000000E+00     0.0000000000E+00     0.0000000000E+00     0.0000000000E+00
     0.0000000000E+00     0.0000000000E+00     0.0000000000E+00     0.0000000000E+00
     0.0000000000E+00     0.0000000000E+00     0.0000000000E+00     0.0000000000E+00
     0.0000000000E+00     0.0000000000E+00     0.0000000000E+00     0.0000000000E+00
     0.0000000000E+00     0.0000000000E+00     0.0000000000E+00     0.0000000000E+00
     0.0000000000E+00     0.0000000000E+00     0.0000000000E+00     0.0000000000E+00
     0.0000000000E+00     0.0000000000E+00     0.0000000000E+00     0.0000000000E+00
     0.0000000000E+00     0.0000000000E+00     0.0000000000E+00     0.0000000000E+00
     0.0000000000E+00     0.0000000000E+00     0.0000000000E+00     0.0000000000E+00
     0.0000000000E+00     0.0000000000E+00     0.0000000000E+00     0.0000000000E+00
     0.0000000000E+00     0.0000000000E+00     0.0000000000E+00     0.0000000000E+00
     0.0000000000E+00     0.0000000000E+00     0.0000000000E+00     0.0000000000E+00
     0.0000000000E+00     0.0000000000E+00     0.0000000000E+00     0.0000000000E+00
     0.0000000000E+00     0.0000000000E+00     0.0000000000E+00     0.0000000000E+00
     0.0000000000E+00     0.0000000000E+00     0.0000000000E+00     0.0000000000E+00
     0.0000000000E+00     0.0000000000E+00     0.0000000000E+00     0.0000000000E+00
     0.0000000000E+00     0.0000000000E+00     0.0000000000E+00     0.0000000000E+00
     0.0000000000E+00     0.0000000000E+00     0.0000000000E+00     0.0000000000E+00
     0.0000000000E+00     0.0000000000E+00     0.0000000000E+00     0.0000000000E+00
     0.0000000000E+00     0.0000000000E+00     0.0000000000E+00     0.0000000000E+00
     0.0000000000E+00     0.0000000000E+00     0.0000000000E+00     0.0000000000E+00
     0.0000000000E+00     0.0000000000E+00     0.0000000000E+00     0.0000000000E+00
     0.0000000000E+00     0.0000000000E+00     0.0000000000E+00     0.0000000000E+00
     0.0000000000E+00     0.0000000000E+00     0.0000000000E+00     0.0000000000E+00
     0.0000000000E+00     0.0000000000E+00     0.0000000000E+00     0.0000000000E+00
     0.0000000000E+00     0.0000000000E+00     0.0000000000E+00     0.0000000000E+00
     0.0000000000E+00     0.0000000000E+00     0.0000000000E+00     0.0000000000E+00
     0.0000000000E+00     0.0000000000E+00     0.0000000000E+00     0.0000000000E+00
     0.0000000000E+00     0.0000000000E+00     0.0000000000E+00     0.0000000000E+00
     0.0000000000E+00     0.0000000000E+00     0.0000000000E+00     0.0000000000E+00
     0.0000000000E+00     0.0000000000E+00     0.0000000000E+00     0.0000000000E+00
     0.0000000000E+00     0.0000000000E+00     0.0000000000E+00     0.0000000000E+00
     0.0000000000E+00     0.0000000000E+00     0.0000000000E+00     0.0000000000E+00
     0.0000000000E+00     0.0000000000E+00     0.0000000000E+00     0.0000000000E+00
     0.0000000000E+00     0.0000000000E+00     0.0000000000E+00     0.0000000000E+00
     0.0000000000E+00     0.0000000000E+00     0.0000000000E+00     0.0000000000E+00
     0.0000000000E+00     0.0000000000E+00     0.0000000000E+00     0.0000000000E+00
     0.0000000000E+00     0.0000000000E+00     0.0000000000E+00     0.0000000000E+00
     0.0000000000E+00     0.0000000000E+00     0.0000000000E+00     0.0000000000E+00
     0.0000000000E+00     0.0000000000E+00     0.0000000000E+00     0.0000000000E+00
     0.0000000000E+00     0.0000000000E+00     0.0000000000E+00     0.0000000000E+00
     0.0000000000E+00     0.0000000000E+00     0.0000000000E+00     0.0000000000E+00
     0.0000000000E+00     0.0000000000E+00     0.0000000000E+00     0.0000000000E+00
     0.0000000000E+00     0.0000000000E+00     0.0000000000E+00     0.0000000000E+00
     0.0000000000E+00     0.0000000000E+00     0.0000000000E+00     0.0000000000E+00
     0.0000000000E+00     0.0000000000E+00     0.0000000000E+00     0.0000000000E+00
     0.0000000000E+00     0.0000000000E+00     0.0000000000E+00     0.0000000000E+00
     0.0000000000E+00     0.0000000000E+00     0.0000000000E+00     0.0000000000E+00
     0.0000000000E+00     0.0000000000E+00     0.0000000000E+00     0.0000000000E+00
     0.0000000000E+00     0.0000000000E+00     0.0000000000E+00     0.0000000000E+00
     0.0000000000E+00     0.0000000000E+00     0.0000000000E+00     0.0000000000E+00
     0.0000000000E+00     0.0000000000E+00     0.0000000000E+00     0.0000000000E+00
     0.0000000000E+00     0.0000000000E+00     0.0000000000E+00     0.0000000000E+00
     0.0000000000E+00     0.0000000000E+00     0.0000000000E+00     0.0000000000E+00
     0.0000000000E+00     0.0000000000E+00     0.0000000000E+00     0.0000000000E+00
     0.0000000000E+00     0.0000000000E+00     0.0000000000E+00     0.0000000000E+00
     0.0000000000E+00     0.0000000000E+00     0.0000000000E+00     0.0000000000E+00
     0.0000000000E+00     0.0000000000E+00     0.0000000000E+00     0.0000000000E+00
     0.0000000000E+00     0.0000000000E+00     0.0000000000E+00     0.0000000000E+00
     0.0000000000E+00     0.0000000000E+00     0.0000000000E+00     0.0000000000E+00
     0.0000000000E+00     0.0000000000E+00     0.0000000000E+00     0.0000000000E+00
     0.0000000000E+00     0.0000000000E+00     0.0000000000E+00     0.0000000000E+00
     0.0000000000E+00     0.0000000000E+00     0.0000000000E+00     0.0000000000E+00
     0.0000000000E+00     0.0000000000E+00     0.0000000000E+00     0.0000000000E+00
     0.0000000000E+00     0.0000000000E+00     0.0000000000E+00     0.0000000000E+00
     0.0000000000E+00     0.0000000000E+00     0.0000000000E+00     0.0000000000E+00
     0.0000000000E+00     0.0000000000E+00     0.0000000000E+00     0.0000000000E+00
     0.0000000000E+00     0.0000000000E+00     0.0000000000E+00     0.0000000000E+00
     0.0000000000E+00     0.0000000000E+00     0.0000000000E+00     0.0000000000E+00
     0.0000000000E+00     0.0000000000E+00     0.0000000000E+00     0.0000000000E+00
     0.0000000000E+00     0.0000000000E+00     0.0000000000E+00     0.0000000000E+00
     0.0000000000E+00     0.0000000000E+00     0.0000000000E+00     0.0000000000E+00
     0.0000000000E+00     0.0000000000E+00     0.0000000000E+00     0.0000000000E+00
     0.0000000000E+00     0.0000000000E+00     0.0000000000E+00     0.0000000000E+00
     0.0000000000E+00     0.0000000000E+00     0.0000000000E+00     0.0000000000E+00
     0.0000000000E+00     0.0000000000E+00     0.0000000000E+00     0.0000000000E+00
     0.0000000000E+00     0.0000000000E+00     0.0000000000E+00     0.0000000000E+00
     0.0000000000E+00     0.0000000000E+00     0.0000000000E+00     0.0000000000E+00
     0.0000000000E+00     0.0000000000E+00     0.0000000000E+00     0.0000000000E+00
     0.0000000000E+00     0.0000000000E+00     0.0000000000E+00     0.0000000000E+00
     0.0000000000E+00     0.0000000000E+00     0.0000000000E+00     0.0000000000E+00
     0.0000000000E+00     0.0000000000E+00     0.0000000000E+00     0.0000000000E+00
     0.0000000000E+00     0.0000000000E+00     0.0000000000E+00     0.0000000000E+00
     0.0000000000E+00     0.0000000000E+00     0.0000000000E+00     0.0000000000E+00
     0.0000000000E+00     0.0000000000E+00     0.0000000000E+00     0.0000000000E+00
     0.0000000000E+00     0.0000000000E+00     0.0000000000E+00     0.0000000000E+00
     0.0000000000E+00     0.0000000000E+00     0.0000000000E+00     0.0000000000E+00
     0.0000000000E+00     0.0000000000E+00     0.0000000000E+00     0.0000000000E+00
     0.0000000000E+00     0.0000000000E+00     0.0000000000E+00     0.0000000000E+00
     0.0000000000E+00     0.0000000000E+00     0.0000000000E+00     0.0000000000E+00
     0.0000000000E+00     0.0000000000E+00     0.0000000000E+00     0.0000000000E+00
     0.0000000000E+00     0.0000000000E+00     0.0000000000E+00     0.0000000000E+00
     0.0000000000E+00     0.0000000000E+00     0.0000000000E+00     0.0000000000E+00
     0.0000000000E+00     0.0000000000E+00     0.0000000000E+00     0.0000000000E+00
     0.0000000000E+00     0.0000000000E+00     0.0000000000E+00     0.0000000000E+00
     0.0000000000E+00     0.0000000000E+00     0.0000000000E+00     0.0000000000E+00
     0.0000000000E+00     0.0000000000E+00     0.0000000000E+00     0.0000000000E+00
     0.0000000000E+00     0.0000000000E+00     0.0000000000E+00     0.0000000000E+00
     0.0000000000E+00     0.0000000000E+00     0.0000000000E+00     0.0000000000E+00
     0.0000000000E+00     0.0000000000E+00     0.0000000000E+00     0.0000000000E+00
     0.0000000000E+00     0.0000000000E+00     0.0000000000E+00     0.0000000000E+00
     0.0000000000E+00     0.0000000000E+00     0.0000000000E+00     0.0000000000E+00
     0.0000000000E+00     0.0000000000E+00     0.0000000000E+00     0.0000000000E+00
     0.0000000000E+00     0.0000000000E+00     0.0000000000E+00     0.0000000000E+00
     0.0000000000E+00     0.0000000000E+00     0.0000000000E+00     0.0000000000E+00
     0.0000000000E+00     0.0000000000E+00     0.0000000000E+00     0.0000000000E+00
     0.0000000000E+00     0.0000000000E+00     0.0000000000E+00     0.0000000000E+00
     0.0000000000E+00     0.0000000000E+00     0.0000000000E+00     0.0000000000E+00
     0.0000000000E+00     0.0000000000E+00     0.0000000000E+00     0.0000000000E+00
     0.0000000000E+00     0.0000000000E+00     0.0000000000E+00     0.0000000000E+00
     0.0000000000E+00     0.0000000000E+00     0.0000000000E+00     0.0000000000E+00
     0.0000000000E+00     0.0000000000E+00     0.0000000000E+00     0.0000000000E+00
     0.0000000000E+00     0.0000000000E+00     0.0000000000E+00     0.0000000000E+00
     0.0000000000E+00
 </PP_RHOATOM>
</UPF>