31
Graphene nanoflake 31C, r<5.0 Ang patch, centred at (9.2408,9.2408,15.8496) Ang  [Lx=Ly=18.48, Lz=31.7 Ang]
C      4.3208      9.2408     15.8496
C      6.7808      9.2408     15.8496
C      9.2408      9.2408     15.8496
C     11.7008      9.2408     15.8496
C     14.1608      9.2408     15.8496
C      5.5508     11.3718     15.8496
C      8.0108     11.3718     15.8496
C     10.4708     11.3718     15.8496
C     12.9308     11.3718     15.8496
C      6.7808     13.5028     15.8496
C      9.2408     13.5028     15.8496
C     11.7008     13.5028     15.8496
C      5.5508      7.1098     15.8496
C      8.0108      7.1098     15.8496
C     10.4708      7.1098     15.8496
C     12.9308      7.1098     15.8496
C      6.7808      4.9788     15.8496
C      9.2408      4.9788     15.8496
C     11.7008      4.9788     15.8496
C      5.5508      9.9518     15.8496
C      8.0108      9.9518     15.8496
C     10.4708      9.9518     15.8496
C     12.9308      9.9518     15.8496
C      6.7808     12.0828     15.8496
C      9.2408     12.0828     15.8496
C     11.7008     12.0828     15.8496
C      6.7808      7.8208     15.8496
C      9.2408      7.8208     15.8496
C     11.7008      7.8208     15.8496
C      8.0108      5.6898     15.8496
C     10.4708      5.6898     15.8496
