36
Coronene C24H12 D6h, atoms at origin in INQ [-L/2,+L/2] convention (Qball-parity, z=0 plane).  Cell Lx=Ly=18.4796 A, Lz=31.6993 A.
C   1.421040   0.000040   0.000000
C   2.842040   0.000040   0.000000
C   0.710540   1.230662   0.000000
C   1.421040   2.461284   0.000000
C  -0.710460   1.230662   0.000000
C  -1.420960   2.461284   0.000000
C  -1.420960   0.000040   0.000000
C  -2.841960   0.000040   0.000000
C  -0.710460  -1.230582   0.000000
C  -1.420960  -2.461204   0.000000
C   0.710540  -1.230582   0.000000
C   1.421040  -2.461204   0.000000
C   3.552540   1.230662   0.000000
C   2.842040   2.461284   0.000000
C   0.710540   3.691906   0.000000
C  -0.710460   3.691906   0.000000
C  -2.841960   2.461284   0.000000
C  -3.552460   1.230662   0.000000
C  -3.552460  -1.230582   0.000000
C  -2.841960  -2.461204   0.000000
C  -0.710460  -3.691826   0.000000
C   0.710540  -3.691826   0.000000
C   2.842040  -2.461204   0.000000
C   3.552540  -1.230582   0.000000
H   4.578714   1.586139   0.000000
H   3.662979   3.172238   0.000000
H   0.915775   4.758337   0.000000
H  -0.915695   4.758337   0.000000
H  -3.662899   3.172238   0.000000
H  -4.578634   1.586139   0.000000
H  -4.578634  -1.586059   0.000000
H  -3.662899  -3.172158   0.000000
H  -0.915695  -4.758257   0.000000
H   0.915775  -4.758257   0.000000
H   3.662979  -3.172158   0.000000
H   4.578714  -1.586059   0.000000
